# vtk DataFile Version 2.0
test grain
ASCII
DATASET UNSTRUCTURED_GRID
POINTS 5000 float
0.497756 0.000612242 0.
0.500589 0.000795231 0.
0.503071 0.000863317 0.
0.505532 0.000929505 0.
0.507651 0.000946081 0.
0.509771 0.000962981 0.
0.511861 0.000975519 0.
0.513904 0.000980444 0.
0.515947 0.000985395 0.
0.517969 0.000989295 0.
0.519979 0.000992662 0.
0.52199 0.00099604 0.
0.523993 0.000996827 0.
0.525994 0.000997279 0.
0.527996 0.000997714 0.
0.529997 0.000998002 0.
0.531998 0.000998289 0.
0.533998 0.00099856 0.
0.535999 0.000998797 0.
0.537999 0.000999034 0.
0.539999 0.000999165 0.
0.541999 0.000999212 0.
0.544 0.000999258 0.
0.546 0.000999265 0.
0.548 0.000999261 0.
0.55 0.000999256 0.
0.552 0.00099923 0.
0.554 0.000999204 0.
0.556 0.000999189 0.
0.558 0.000999215 0.
0.56 0.000999241 0.
0.562 0.00099927 0.
0.564 0.000999302 0.
0.566 0.000999334 0.
0.568 0.000999329 0.
0.57 0.000999304 0.
0.572 0.000999279 0.
0.574 0.000999272 0.
0.576 0.000999267 0.
0.578 0.000999266 0.
0.58 0.000999287 0.
0.582 0.000999308 0.
0.584 0.000999319 0.
0.586 0.000999312 0.
0.588 0.000999304 0.
0.59 0.000999329 0.
0.592 0.000999381 0.
0.594 0.000999433 0.
0.596 0.000999404 0.
0.598 0.000999351 0.
0.6 0.000999299 0.
0.602 0.000999376 0.
0.604 0.000999453 0.
0.606 0.000999499 0.
0.608 0.000999436 0.
0.61 0.000999372 0.
0.612 0.00099934 0.
0.614 0.000999345 0.
0.616 0.00099935 0.
0.618 0.000999327 0.
0.62 0.000999291 0.
0.622 0.000999255 0.
0.624 0.000999264 0.
0.626 0.000999279 0.
0.628 0.000999294 0.
0.63 0.000999318 0.
0.632 0.000999341 0.
0.634 0.000999351 0.
0.636 0.000999335 0.
0.638 0.000999319 0.
0.64 0.000999291 0.
0.642 0.000999254 0.
0.644 0.000999216 0.
0.646 0.000999212 0.
0.648 0.000999218 0.
0.65 0.000999223 0.
0.652 0.000999245 0.
0.654 0.000999266 0.
0.656 0.000999259 0.
0.658001 0.000999156 0.
0.660001 0.000999052 0.
0.662001 0.000998783 0.
0.664002 0.000998306 0.
0.666002 0.00099783 0.
0.668004 0.000997644 0.
0.670005 0.000997603 0.
0.672006 0.000997563 0.
0.674009 0.000996557 0.
0.676011 0.000995436 0.
0.678016 0.000993878 0.
0.680036 0.000988957 0.
0.682056 0.00098406 0.
0.684089 0.000978913 0.
0.686149 0.000973198 0.
0.688209 0.000967516 0.
0.690372 0.00094066 0.
0.692591 0.000903635 0.
0.694831 0.000865114 0.
0.697628 0.000763283 0.
0.700431 0.000664731 0.
0.495728 0.00158792 0.
0.499079 0.00229489 0.
0.501939 0.00255445 0.
0.504763 0.00277174 0.
0.507132 0.00282987 0.
0.50943 0.00288318 0.
0.511663 0.002926 0.
0.513757 0.00294091 0.
0.515852 0.0029559 0.
0.517907 0.00296772 0.
0.519938 0.00297787 0.
0.52197 0.00298805 0.
0.523978 0.00299047 0.
0.525982 0.00299183 0.
0.527987 0.00299314 0.
0.52999 0.002994 0.
0.531993 0.00299487 0.
0.533995 0.00299568 0.
0.535996 0.00299639 0.
0.537997 0.0029971 0.
0.539998 0.0029975 0.
0.541998 0.00299764 0.
0.543999 0.00299778 0.
0.545999 0.0029978 0.
0.547999 0.00299778 0.
0.549999 0.00299777 0.
0.551999 0.00299769 0.
0.553999 0.00299761 0.
0.555999 0.00299757 0.
0.557999 0.00299765 0.
0.559999 0.00299772 0.
0.561999 0.00299781 0.
0.563999 0.00299791 0.
0.565999 0.002998 0.
0.567999 0.00299799 0.
0.569999 0.00299791 0.
0.571999 0.00299784 0.
0.573999 0.00299782 0.
0.575999 0.0029978 0.
0.577999 0.0029978 0.
0.579999 0.00299786 0.
0.581999 0.00299792 0.
0.583999 0.00299796 0.
0.585999 0.00299794 0.
0.587999 0.00299791 0.
0.589999 0.00299799 0.
0.591999 0.00299814 0.
0.593999 0.0029983 0.
0.595999 0.00299821 0.
0.598 0.00299805 0.
0.6 0.0029979 0.
0.602001 0.00299813 0.
0.604001 0.00299836 0.
0.606001 0.0029985 0.
0.608001 0.00299831 0.
0.610001 0.00299812 0.
0.612001 0.00299802 0.
0.614001 0.00299803 0.
0.616001 0.00299805 0.
0.618001 0.00299798 0.
0.620001 0.00299787 0.
0.622001 0.00299776 0.
0.624001 0.00299779 0.
0.626001 0.00299784 0.
0.628001 0.00299788 0.
0.630001 0.00299795 0.
0.632001 0.00299802 0.
0.634001 0.00299805 0.
0.636001 0.002998 0.
0.638001 0.00299796 0.
0.640001 0.00299787 0.
0.642001 0.00299776 0.
0.644001 0.00299765 0.
0.646001 0.00299764 0.
0.648001 0.00299765 0.
0.650001 0.00299767 0.
0.652001 0.00299773 0.
0.654001 0.0029978 0.
0.656001 0.00299778 0.
0.658002 0.00299747 0.
0.660002 0.00299716 0.
0.662003 0.00299635 0.
0.664005 0.00299492 0.
0.666007 0.00299349 0.
0.668011 0.00299293 0.
0.670015 0.00299281 0.
0.672019 0.00299269 0.
0.674027 0.00298965 0.
0.676034 0.00298628 0.
0.678048 0.00298149 0.
0.680103 0.00296661 0.
0.682159 0.00295181 0.
0.684241 0.00293632 0.
0.686367 0.00291899 0.
0.688493 0.00290177 0.
0.690898 0.00280474 0.
0.693385 0.00268733 0.
0.696098 0.00252468 0.
0.699261 0.00220819 0.
0.702529 0.00170821 0.
0.493385 0.00223257 0.
0.497006 0.00340849 0.
0.500613 0.00419549 0.
0.503806 0.00457192 0.
0.506565 0.00470153 0.
0.509055 0.00479498 0.
0.511461 0.00487573 0.
0.513607 0.0049008 0.
0.515755 0.00492601 0.
0.517844 0.00494591 0.
0.519897 0.00496291 0.
0.52195 0.00497997 0.
0.523963 0.00498411 0.
0.52597 0.00498638 0.
0.527978 0.00498856 0.
0.529983 0.00499 0.
0.531988 0.00499144 0.
0.533992 0.0049928 0.
0.535994 0.00499398 0.
0.537996 0.00499517 0.
0.539997 0.00499583 0.
0.541997 0.00499606 0.
0.543998 0.00499629 0.
0.545998 0.00499633 0.
0.547998 0.0049963 0.
0.549999 0.00499628 0.
0.551998 0.00499615 0.
0.553998 0.00499602 0.
0.555998 0.00499595 0.
0.557998 0.00499608 0.
0.559998 0.00499621 0.
0.561998 0.00499635 0.
0.563998 0.00499651 0.
0.565999 0.00499667 0.
0.567999 0.00499664 0.
0.569999 0.00499652 0.
0.571999 0.0049964 0.
0.573999 0.00499636 0.
0.575998 0.00499634 0.
0.577998 0.00499633 0.
0.579998 0.00499643 0.
0.581999 0.00499654 0.
0.583999 0.0049966 0.
0.585999 0.00499656 0.
0.587999 0.00499652 0.
0.589999 0.00499665 0.
0.591999 0.00499691 0.
0.593999 0.00499717 0.
0.595999 0.00499702 0.
0.598 0.00499676 0.
0.6 0.00499649 0.
0.602001 0.00499688 0.
0.604001 0.00499727 0.
0.606002 0.00499749 0.
0.608002 0.00499718 0.
0.610002 0.00499686 0.
0.612001 0.0049967 0.
0.614001 0.00499672 0.
0.616001 0.00499675 0.
0.618002 0.00499664 0.
0.620002 0.00499646 0.
0.622002 0.00499627 0.
0.624002 0.00499632 0.
0.626001 0.00499639 0.
0.628001 0.00499647 0.
0.630001 0.00499659 0.
0.632001 0.0049967 0.
0.634001 0.00499675 0.
0.636001 0.00499667 0.
0.638002 0.00499659 0.
0.640002 0.00499645 0.
0.642002 0.00499627 0.
0.644002 0.00499608 0.
0.646002 0.00499606 0.
0.648002 0.00499609 0.
0.650001 0.00499612 0.
0.652001 0.00499622 0.
0.654002 0.00499633 0.
0.656002 0.0049963 0.
0.658003 0.00499578 0.
0.660003 0.00499526 0.
0.662005 0.00499391 0.
0.664009 0.00499152 0.
0.666012 0.00498914 0.
0.668018 0.00498823 0.
0.670025 0.00498802 0.
0.672032 0.00498782 0.
0.674044 0.0049827 0.
0.676057 0.00497708 0.
0.678081 0.00496891 0.
0.680172 0.00494392 0.
0.682264 0.00491905 0.
0.684397 0.00489315 0.
0.686592 0.00486397 0.
0.688785 0.00483498 0.
0.691505 0.00464331 0.
0.694288 0.00443647 0.
0.697661 0.0040709 0.
0.701271 0.00348386 0.
0.705006 0.00235386 0.
0.490534 0.00241865 0.
0.494743 0.00407782 0.
0.498846 0.00532151 0.
0.5022 0.00582853 0.
0.505356 0.00615702 0.
0.508011 0.00635245 0.
0.51065 0.00655201 0.
0.512965 0.00664678 0.
0.515274 0.00673719 0.
0.517501 0.00680796 0.
0.519636 0.00685433 0.
0.521774 0.00690149 0.
0.523835 0.0069267 0.
0.525882 0.00694782 0.
0.527926 0.00696767 0.
0.529941 0.00697113 0.
0.531956 0.00697459 0.
0.533969 0.00697828 0.
0.535977 0.00698248 0.
0.537985 0.00698668 0.
0.53999 0.00698939 0.
0.541992 0.00699089 0.
0.543995 0.00699238 0.
0.545996 0.00699302 0.
0.547996 0.00699341 0.
0.549997 0.00699381 0.
0.551997 0.00699369 0.
0.553997 0.00699357 0.
0.555996 0.00699354 0.
0.557997 0.0069938 0.
0.559997 0.00699406 0.
0.561997 0.00699428 0.
0.563998 0.00699444 0.
0.565998 0.0069946 0.
0.567998 0.00699454 0.
0.569998 0.00699436 0.
0.571998 0.00699418 0.
0.573998 0.00699412 0.
0.575998 0.00699408 0.
0.577997 0.00699406 0.
0.579998 0.00699424 0.
0.581998 0.00699443 0.
0.583998 0.00699454 0.
0.585998 0.00699454 0.
0.587998 0.00699453 0.
0.589998 0.00699467 0.
0.591998 0.00699494 0.
0.593998 0.00699521 0.
0.595999 0.00699505 0.
0.598 0.00699475 0.
0.6 0.00699446 0.
0.602001 0.00699489 0.
0.604002 0.00699533 0.
0.606003 0.00699559 0.
0.608003 0.00699528 0.
0.610003 0.00699497 0.
0.612003 0.00699478 0.
0.614003 0.00699474 0.
0.616002 0.0069947 0.
0.618003 0.00699454 0.
0.620003 0.00699433 0.
0.622003 0.00699412 0.
0.624003 0.0069942 0.
0.626002 0.00699431 0.
0.628002 0.00699442 0.
0.630002 0.00699455 0.
0.632002 0.00699468 0.
0.634002 0.00699474 0.
0.636002 0.00699465 0.
0.638003 0.00699455 0.
0.640003 0.00699432 0.
0.642003 0.00699398 0.
0.644003 0.00699364 0.
0.646003 0.00699356 0.
0.648003 0.00699356 0.
0.650003 0.00699356 0.
0.652004 0.00699295 0.
0.654005 0.00699233 0.
0.656006 0.00699134 0.
0.65801 0.00698903 0.
0.660014 0.00698672 0.
0.662021 0.0069826 0.
0.664032 0.00697628 0.
0.666043 0.00696996 0.
0.668061 0.00696617 0.
0.670082 0.00696352 0.
0.672103 0.00696088 0.
0.674172 0.0069287 0.
0.676244 0.00689475 0.
0.678338 0.00685692 0.
0.680525 0.00679767 0.
0.682707 0.00673959 0.
0.685026 0.0066475 0.
0.687429 0.00653666 0.
0.689916 0.00638154 0.
0.692837 0.00601983 0.
0.695894 0.00565362 0.
0.699532 0.00515251 0.
0.703734 0.00418557 0.
0.707758 0.00263418 0.
0.487644 0.00241863 0.
0.492308 0.00438292 0.
0.496459 0.00585178 0.
0.500335 0.00686879 0.
0.503775 0.00746221 0.
0.506807 0.00783134 0.
0.509672 0.00816479 0.
0.51224 0.00836043 0.
0.514733 0.00852461 0.
0.517137 0.00866319 0.
0.51936 0.00874081 0.
0.521588 0.0088198 0.
0.523705 0.00886762 0.
0.525791 0.00890808 0.
0.527874 0.00894666 0.
0.5299 0.00895216 0.
0.531925 0.00895766 0.
0.533946 0.0089637 0.
0.53596 0.00897093 0.
0.537974 0.00897817 0.
0.539983 0.00898295 0.
0.541987 0.0089857 0.
0.543991 0.00898845 0.
0.545993 0.00898971 0.
0.547994 0.00899052 0.
0.549996 0.00899134 0.
0.551996 0.00899123 0.
0.553995 0.00899112 0.
0.555995 0.00899113 0.
0.557996 0.00899152 0.
0.559996 0.00899191 0.
0.561996 0.00899221 0.
0.563997 0.00899237 0.
0.565997 0.00899254 0.
0.567997 0.00899243 0.
0.569997 0.00899219 0.
0.571998 0.00899196 0.
0.573997 0.00899188 0.
0.575997 0.00899182 0.
0.577997 0.0089918 0.
0.579997 0.00899206 0.
0.581997 0.00899231 0.
0.583997 0.00899249 0.
0.585997 0.00899251 0.
0.587997 0.00899253 0.
0.589997 0.0089927 0.
0.591997 0.00899298 0.
0.593997 0.00899326 0.
0.595998 0.00899307 0.
0.597999 0.00899275 0.
0.6 0.00899243 0.
0.602002 0.00899291 0.
0.604003 0.00899339 0.
0.606004 0.00899369 0.
0.608004 0.00899339 0.
0.610004 0.00899309 0.
0.612004 0.00899287 0.
0.614004 0.00899276 0.
0.616004 0.00899264 0.
0.618004 0.00899245 0.
0.620004 0.00899221 0.
0.622004 0.00899197 0.
0.624004 0.00899207 0.
0.626003 0.00899222 0.
0.628003 0.00899236 0.
0.630003 0.00899251 0.
0.632003 0.00899266 0.
0.634003 0.00899272 0.
0.636003 0.00899262 0.
0.638004 0.00899251 0.
0.640004 0.00899219 0.
0.642004 0.00899169 0.
0.644005 0.00899119 0.
0.646005 0.00899106 0.
0.648004 0.00899103 0.
0.650004 0.008991 0.
0.652006 0.00898967 0.
0.654008 0.00898833 0.
0.656011 0.00898637 0.
0.658017 0.00898226 0.
0.660024 0.00897815 0.
0.662036 0.00897124 0.
0.664055 0.00896094 0.
0.666074 0.00895067 0.
0.668105 0.00894399 0.
0.67014 0.00893887 0.
0.672176 0.00893375 0.
0.674306 0.00887219 0.
0.676439 0.00880885 0.
0.678612 0.0087397 0.
0.680901 0.00864372 0.
0.683183 0.00854968 0.
0.685763 0.00836303 0.
0.688409 0.00815762 0.
0.691304 0.00777974 0.
0.694418 0.0072288 0.
0.697957 0.00661165 0.
0.70188 0.00582082 0.
0.706206 0.0044699 0.
0.710902 0.00255661 0.
0.484506 0.0023127 0.
0.489494 0.00440601 0.
0.494031 0.00616615 0.
0.498158 0.0076115 0.
0.502036 0.00859917 0.
0.505568 0.00923893 0.
0.508648 0.00968769 0.
0.511493 0.00999999 0.
0.514145 0.0102352 0.
0.516732 0.0104628 0.
0.519038 0.0105751 0.
0.521352 0.0106912 0.
0.523535 0.0107722 0.
0.525666 0.0108431 0.
0.527796 0.0109131 0.
0.529836 0.0109222 0.
0.531877 0.0109314 0.
0.533912 0.0109413 0.
0.535933 0.0109529 0.
0.537955 0.0109646 0.
0.539969 0.0109726 0.
0.541977 0.0109776 0.
0.543985 0.0109826 0.
0.545988 0.010985 0.
0.547991 0.0109867 0.
0.549993 0.0109884 0.
0.551993 0.0109885 0.
0.553994 0.0109886 0.
0.555994 0.0109888 0.
0.557994 0.0109894 0.
0.559995 0.0109899 0.
0.561995 0.0109903 0.
0.563996 0.0109905 0.
0.565996 0.0109906 0.
0.567996 0.0109905 0.
0.569997 0.0109903 0.
0.571997 0.0109901 0.
0.573997 0.01099 0.
0.575996 0.01099 0.
0.577996 0.0109899 0.
0.579996 0.0109902 0.
0.581996 0.0109905 0.
0.583997 0.0109907 0.
0.585997 0.0109907 0.
0.587997 0.0109908 0.
0.589997 0.0109909 0.
0.591997 0.0109912 0.
0.593997 0.0109914 0.
0.595998 0.0109912 0.
0.597999 0.0109909 0.
0.6 0.0109907 0.
0.602002 0.0109911 0.
0.604003 0.0109916 0.
0.606004 0.0109919 0.
0.608004 0.0109916 0.
0.610004 0.0109914 0.
0.612004 0.0109912 0.
0.614004 0.0109911 0.
0.616004 0.0109909 0.
0.618004 0.0109907 0.
0.620005 0.0109905 0.
0.622005 0.0109902 0.
0.624004 0.0109903 0.
0.626004 0.0109904 0.
0.628003 0.0109906 0.
0.630004 0.0109907 0.
0.632004 0.0109909 0.
0.634004 0.0109909 0.
0.636004 0.0109908 0.
0.638005 0.0109906 0.
0.640005 0.0109901 0.
0.642006 0.0109894 0.
0.644006 0.0109887 0.
0.646007 0.0109883 0.
0.648007 0.010988 0.
0.650008 0.0109876 0.
0.652011 0.0109851 0.
0.654014 0.0109825 0.
0.65602 0.0109788 0.
0.658031 0.0109714 0.
0.660043 0.0109641 0.
0.662063 0.0109533 0.
0.664091 0.0109385 0.
0.66612 0.0109237 0.
0.668171 0.010908 0.
0.670231 0.0108923 0.
0.672291 0.0108764 0.
0.674486 0.0107755 0.
0.676679 0.0106753 0.
0.678941 0.010565 0.
0.681331 0.010427 0.
0.683729 0.0102899 0.
0.686556 0.00999986 0.
0.689461 0.00969246 0.
0.692754 0.00905157 0.
0.6962 0.00829131 0.
0.700082 0.0074508 0.
0.70445 0.00614455 0.
0.709037 0.0045213 0.
0.713973 0.00240791 0.
0.481365 0.00219576 0.
0.486939 0.00441134 0.
0.491722 0.00634697 0.
0.496115 0.00813727 0.
0.500624 0.00954474 0.
0.50438 0.0103435 0.
0.507636 0.0109084 0.
0.510727 0.0114004 0.
0.513493 0.0117757 0.
0.516223 0.0121555 0.
0.518637 0.0123288 0.
0.521046 0.0124981 0.
0.523314 0.01263 0.
0.5255 0.0127468 0.
0.527686 0.0128645 0.
0.529749 0.0128803 0.
0.531812 0.012895 0.
0.533865 0.0129106 0.
0.535896 0.0129281 0.
0.537927 0.0129457 0.
0.539949 0.0129582 0.
0.541962 0.0129665 0.
0.543975 0.0129747 0.
0.545982 0.012979 0.
0.547986 0.012982 0.
0.549989 0.012985 0.
0.55199 0.0129856 0.
0.553991 0.0129861 0.
0.555992 0.0129866 0.
0.557993 0.0129874 0.
0.559994 0.0129881 0.
0.561995 0.0129885 0.
0.563995 0.0129887 0.
0.565995 0.0129889 0.
0.567996 0.0129889 0.
0.569996 0.0129888 0.
0.571997 0.0129887 0.
0.573996 0.0129886 0.
0.575996 0.0129885 0.
0.577996 0.0129885 0.
0.579996 0.0129887 0.
0.581996 0.0129889 0.
0.583996 0.0129891 0.
0.585996 0.0129892 0.
0.587997 0.0129893 0.
0.589997 0.0129894 0.
0.591997 0.0129895 0.
0.593997 0.0129896 0.
0.595998 0.0129895 0.
0.597999 0.0129893 0.
0.6 0.0129892 0.
0.602002 0.0129895 0.
0.604004 0.0129898 0.
0.606005 0.0129901 0.
0.608005 0.01299 0.
0.610005 0.0129899 0.
0.612005 0.0129898 0.
0.614005 0.0129896 0.
0.616005 0.0129895 0.
0.618005 0.0129893 0.
0.620005 0.0129891 0.
0.622005 0.0129888 0.
0.624005 0.0129889 0.
0.626004 0.012989 0.
0.628004 0.0129891 0.
0.630004 0.0129892 0.
0.632005 0.0129893 0.
0.634005 0.0129893 0.
0.636005 0.0129891 0.
0.638006 0.0129889 0.
0.640007 0.0129882 0.
0.642008 0.0129872 0.
0.644009 0.0129861 0.
0.64601 0.0129852 0.
0.648011 0.0129843 0.
0.650013 0.0129834 0.
0.652019 0.0129791 0.
0.654024 0.0129747 0.
0.656033 0.0129686 0.
0.658052 0.0129564 0.
0.660072 0.0129443 0.
0.662101 0.0129285 0.
0.664141 0.0129085 0.
0.666182 0.0128884 0.
0.668264 0.0128559 0.
0.67036 0.01282 0.
0.672463 0.0127809 0.
0.674725 0.0126279 0.
0.676983 0.0124771 0.
0.679368 0.0122989 0.
0.681888 0.0120886 0.
0.684477 0.0118322 0.
0.687408 0.0113403 0.
0.690493 0.0108312 0.
0.693935 0.0101052 0.
0.697748 0.00921851 0.
0.702045 0.00806172 0.
0.706631 0.00640996 0.
0.711572 0.00458195 0.
0.717093 0.00226938 0.
0.478396 0.00214391 0.
0.48434 0.00443053 0.
0.48951 0.00645497 0.
0.494171 0.00848834 0.
0.499018 0.0101682 0.
0.502907 0.0111944 0.
0.506515 0.0120365 0.
0.509846 0.012718 0.
0.512804 0.0132745 0.
0.515663 0.0138053 0.
0.518216 0.0140732 0.
0.520723 0.0142972 0.
0.523088 0.0144826 0.
0.525329 0.0146464 0.
0.527572 0.0148129 0.
0.529661 0.014838 0.
0.531745 0.0148584 0.
0.533818 0.0148798 0.
0.535859 0.0149032 0.
0.5379 0.0149267 0.
0.539929 0.0149438 0.
0.541947 0.0149553 0.
0.543966 0.0149668 0.
0.545975 0.0149729 0.
0.54798 0.0149773 0.
0.549986 0.0149817 0.
0.551987 0.0149826 0.
0.553989 0.0149835 0.
0.555991 0.0149845 0.
0.557992 0.0149853 0.
0.559993 0.0149862 0.
0.561994 0.0149868 0.
0.563994 0.014987 0.
0.565995 0.0149872 0.
0.567995 0.0149872 0.
0.569996 0.0149872 0.
0.571996 0.0149872 0.
0.573996 0.0149872 0.
0.575995 0.0149871 0.
0.577995 0.014987 0.
0.579995 0.0149872 0.
0.581996 0.0149874 0.
0.583996 0.0149876 0.
0.585996 0.0149877 0.
0.587996 0.0149878 0.
0.589996 0.0149879 0.
0.591997 0.0149878 0.
0.593997 0.0149878 0.
0.595998 0.0149878 0.
0.597999 0.0149877 0.
0.6 0.0149877 0.
0.602002 0.0149879 0.
0.604004 0.0149881 0.
0.606005 0.0149883 0.
0.608005 0.0149884 0.
0.610005 0.0149884 0.
0.612005 0.0149884 0.
0.614005 0.0149882 0.
0.616006 0.0149881 0.
0.618006 0.0149879 0.
0.620006 0.0149877 0.
0.622006 0.0149875 0.
0.624005 0.0149875 0.
0.626005 0.0149876 0.
0.628005 0.0149876 0.
0.630005 0.0149876 0.
0.632005 0.0149877 0.
0.634006 0.0149876 0.
0.636006 0.0149874 0.
0.638007 0.0149871 0.
0.640008 0.0149863 0.
0.642009 0.0149849 0.
0.644011 0.0149836 0.
0.646013 0.0149821 0.
0.648016 0.0149807 0.
0.650018 0.0149792 0.
0.652026 0.0149731 0.
0.654034 0.014967 0.
0.656046 0.0149583 0.
0.658073 0.0149413 0.
0.6601 0.0149243 0.
0.662139 0.0149036 0.
0.664192 0.0148784 0.
0.666244 0.0148531 0.
0.668359 0.0148024 0.
0.670492 0.0147458 0.
0.672641 0.0146814 0.
0.674972 0.014475 0.
0.677296 0.0142727 0.
0.679828 0.0140169 0.
0.682483 0.0137315 0.
0.685274 0.0133005 0.
0.688295 0.0126118 0.
0.691616 0.011867 0.
0.695216 0.0109971 0.
0.699246 0.00998808 0.
0.703965 0.00846243 0.
0.708823 0.0065502 0.
0.714125 0.00453716 0.
0.720198 0.00220801 0.
0.475546 0.00209656 0.
0.481856 0.00445171 0.
0.487319 0.00650573 0.
0.492109 0.00869085 0.
0.497085 0.0104942 0.
0.501335 0.0119099 0.
0.505325 0.013075 0.
0.508858 0.0139345 0.
0.512054 0.0146686 0.
0.514951 0.0152751 0.
0.517628 0.015661 0.
0.520201 0.0159486 0.
0.522676 0.0162095 0.
0.524972 0.0164138 0.
0.527278 0.0166226 0.
0.529437 0.0166962 0.
0.531581 0.0167582 0.
0.533708 0.016815 0.
0.535767 0.0168454 0.
0.537826 0.0168759 0.
0.539872 0.0169015 0.
0.541904 0.0169226 0.
0.543937 0.0169439 0.
0.545953 0.0169555 0.
0.547964 0.016964 0.
0.549975 0.0169725 0.
0.551979 0.0169748 0.
0.553982 0.0169772 0.
0.555986 0.0169793 0.
0.557988 0.016981 0.
0.55999 0.0169826 0.
0.561992 0.0169837 0.
0.563992 0.0169842 0.
0.565993 0.0169846 0.
0.567994 0.0169848 0.
0.569995 0.0169849 0.
0.571995 0.0169849 0.
0.573995 0.0169849 0.
0.575995 0.0169849 0.
0.577994 0.0169849 0.
0.579995 0.0169851 0.
0.581995 0.0169853 0.
0.583995 0.0169855 0.
0.585996 0.0169856 0.
0.587996 0.0169857 0.
0.589996 0.0169857 0.
0.591997 0.0169856 0.
0.593997 0.0169855 0.
0.595998 0.0169855 0.
0.597999 0.0169854 0.
0.6 0.0169854 0.
0.602002 0.0169856 0.
0.604004 0.0169859 0.
0.606005 0.016986 0.
0.608005 0.0169862 0.
0.610006 0.0169863 0.
0.612006 0.0169863 0.
0.614006 0.0169862 0.
0.616006 0.0169861 0.
0.618006 0.0169859 0.
0.620007 0.0169857 0.
0.622007 0.0169854 0.
0.624006 0.0169854 0.
0.626006 0.0169854 0.
0.628006 0.0169854 0.
0.630006 0.0169853 0.
0.632007 0.0169852 0.
0.634008 0.0169849 0.
0.636009 0.0169842 0.
0.63801 0.0169836 0.
0.640012 0.016982 0.
0.642015 0.0169797 0.
0.644018 0.0169773 0.
0.646023 0.0169741 0.
0.648028 0.0169705 0.
0.650033 0.0169669 0.
0.652049 0.0169552 0.
0.654065 0.0169435 0.
0.656088 0.0169278 0.
0.658131 0.0168996 0.
0.660175 0.0168717 0.
0.662237 0.0168404 0.
0.664316 0.0168052 0.
0.666394 0.0167701 0.
0.66858 0.0166653 0.
0.670786 0.0165513 0.
0.673021 0.0164275 0.
0.675404 0.0161832 0.
0.677774 0.0159449 0.
0.680443 0.0155921 0.
0.68318 0.0152383 0.
0.686131 0.0146164 0.
0.689225 0.0137869 0.
0.692797 0.0128362 0.
0.696668 0.0117644 0.
0.700875 0.0105467 0.
0.705774 0.0087405 0.
0.710939 0.00664865 0.
0.716534 0.00455223 0.
0.723091 0.00216326 0.
0.472596 0.00205403 0.
0.479183 0.00448395 0.
0.485083 0.00647977 0.
0.490063 0.00875873 0.
0.495168 0.0107393 0.
0.499718 0.0125037 0.
0.503913 0.0139111 0.
0.507688 0.0149599 0.
0.511042 0.0158343 0.
0.51402 0.0165499 0.
0.516911 0.0171365 0.
0.519576 0.0175258 0.
0.522203 0.017904 0.
0.524573 0.0181566 0.
0.526957 0.0184152 0.
0.529196 0.0185422 0.
0.531405 0.01865 0.
0.533593 0.0187485 0.
0.535671 0.0187863 0.
0.53775 0.0188242 0.
0.539813 0.0188582 0.
0.54186 0.0188893 0.
0.543908 0.0189206 0.
0.545932 0.0189379 0.
0.547948 0.0189505 0.
0.549964 0.0189632 0.
0.55197 0.018967 0.
0.553975 0.0189707 0.
0.555981 0.0189742 0.
0.557984 0.0189766 0.
0.559987 0.018979 0.
0.561989 0.0189806 0.
0.563991 0.0189813 0.
0.565992 0.0189821 0.
0.567993 0.0189824 0.
0.569994 0.0189825 0.
0.571994 0.0189827 0.
0.573994 0.0189827 0.
0.575994 0.0189827 0.
0.577994 0.0189827 0.
0.579994 0.018983 0.
0.581995 0.0189832 0.
0.583995 0.0189834 0.
0.585996 0.0189835 0.
0.587996 0.0189835 0.
0.589996 0.0189835 0.
0.591997 0.0189834 0.
0.593997 0.0189833 0.
0.595998 0.0189832 0.
0.597999 0.0189832 0.
0.6 0.0189832 0.
0.602002 0.0189834 0.
0.604004 0.0189836 0.
0.606005 0.0189838 0.
0.608005 0.018984 0.
0.610006 0.0189842 0.
0.612006 0.0189843 0.
0.614006 0.0189842 0.
0.616007 0.0189842 0.
0.618007 0.018984 0.
0.620007 0.0189837 0.
0.622008 0.0189834 0.
0.624007 0.0189834 0.
0.626007 0.0189833 0.
0.628007 0.0189833 0.
0.630007 0.018983 0.
0.632008 0.0189827 0.
0.634009 0.0189821 0.
0.636011 0.0189811 0.
0.638013 0.01898 0.
0.640016 0.0189777 0.
0.642021 0.0189744 0.
0.644025 0.0189711 0.
0.646032 0.0189659 0.
0.64804 0.0189603 0.
0.650049 0.0189544 0.
0.652072 0.0189371 0.
0.654096 0.0189198 0.
0.65613 0.0188967 0.
0.658191 0.0188571 0.
0.660252 0.0188177 0.
0.662338 0.0187754 0.
0.664446 0.0187294 0.
0.666552 0.0186837 0.
0.668823 0.0185137 0.
0.671109 0.0183353 0.
0.67344 0.0181484 0.
0.675894 0.0178545 0.
0.678366 0.017548 0.
0.681175 0.0170591 0.
0.68404 0.0165526 0.
0.68714 0.0157008 0.
0.690318 0.0148004 0.
0.694039 0.0137338 0.
0.698227 0.012419 0.
0.702682 0.0108747 0.
0.707735 0.00893152 0.
0.713064 0.00666425 0.
0.719056 0.00461292 0.
0.726044 0.00206502 0.
0.469352 0.00194504 0.
0.476545 0.00454003 0.
0.48287 0.00648008 0.
0.4881 0.00880512 0.
0.493287 0.010939 0.
0.49799 0.0128849 0.
0.502328 0.0145237 0.
0.506349 0.0157992 0.
0.509862 0.0168805 0.
0.513036 0.0177693 0.
0.51615 0.0185582 0.
0.518939 0.0190677 0.
0.5217 0.0195699 0.
0.524176 0.0198738 0.
0.526626 0.020169 0.
0.528941 0.0203527 0.
0.531208 0.0205133 0.
0.533457 0.0206661 0.
0.535558 0.020712 0.
0.53766 0.0207584 0.
0.539744 0.0208024 0.
0.541805 0.0208452 0.
0.543867 0.0208885 0.
0.5459 0.0209133 0.
0.547924 0.0209316 0.
0.549948 0.02095 0.
0.551957 0.0209561 0.
0.553965 0.0209621 0.
0.555973 0.0209675 0.
0.557978 0.0209709 0.
0.559983 0.0209744 0.
0.561986 0.0209768 0.
0.563988 0.020978 0.
0.56599 0.0209791 0.
0.567992 0.0209798 0.
0.569993 0.0209802 0.
0.571994 0.0209805 0.
0.573994 0.0209806 0.
0.575993 0.0209807 0.
0.577993 0.0209807 0.
0.579994 0.020981 0.
0.581994 0.0209813 0.
0.583995 0.0209815 0.
0.585995 0.0209815 0.
0.587996 0.0209816 0.
0.589996 0.0209815 0.
0.591997 0.0209814 0.
0.593997 0.0209812 0.
0.595998 0.0209812 0.
0.597999 0.0209812 0.
0.6 0.0209812 0.
0.602002 0.0209814 0.
0.604004 0.0209815 0.
0.606005 0.0209817 0.
0.608005 0.020982 0.
0.610006 0.0209823 0.
0.612006 0.0209824 0.
0.614007 0.0209824 0.
0.616007 0.0209823 0.
0.618007 0.0209821 0.
0.620008 0.0209818 0.
0.622008 0.0209815 0.
0.624008 0.0209814 0.
0.626008 0.0209813 0.
0.628008 0.0209811 0.
0.630009 0.0209805 0.
0.63201 0.0209799 0.
0.634012 0.0209789 0.
0.636015 0.0209771 0.
0.638017 0.0209754 0.
0.640022 0.0209721 0.
0.642029 0.0209674 0.
0.644035 0.0209628 0.
0.646046 0.0209548 0.
0.648058 0.020946 0.
0.65007 0.0209368 0.
0.652105 0.0209116 0.
0.654139 0.0208866 0.
0.656185 0.0208542 0.
0.658265 0.0208021 0.
0.660344 0.0207504 0.
0.662458 0.020692 0.
0.664598 0.020629 0.
0.666738 0.0205665 0.
0.669083 0.0203257 0.
0.671438 0.0200842 0.
0.673857 0.0198405 0.
0.67638 0.0195067 0.
0.678993 0.0191098 0.
0.681923 0.0184862 0.
0.68498 0.0177508 0.
0.688215 0.0167054 0.
0.691641 0.0156247 0.
0.695366 0.0145124 0.
0.699795 0.0129834 0.
0.704496 0.0110843 0.
0.709709 0.00901679 0.
0.715191 0.00663777 0.
0.721683 0.00462895 0.
0.729574 0.00192824 0.
0.465666 0.00186039 0.
0.47392 0.00456786 0.
0.480712 0.00650686 0.
0.486174 0.00883046 0.
0.491475 0.01109 0.
0.496332 0.0131846 0.
0.500792 0.015022 0.
0.505063 0.0165689 0.
0.50871 0.0178247 0.
0.512117 0.0189318 0.
0.51539 0.0198564 0.
0.51832 0.0204673 0.
0.521157 0.0210377 0.
0.523735 0.0214356 0.
0.526255 0.0218132 0.
0.528655 0.0220894 0.
0.530974 0.0223257 0.
0.533286 0.0225586 0.
0.535418 0.0226163 0.
0.537551 0.022674 0.
0.53966 0.0227307 0.
0.541736 0.0227882 0.
0.543812 0.0228461 0.
0.545858 0.0228808 0.
0.547893 0.0229066 0.
0.549927 0.0229325 0.
0.55194 0.0229419 0.
0.553952 0.022951 0.
0.555963 0.0229592 0.
0.55797 0.022964 0.
0.559977 0.0229688 0.
0.561982 0.0229722 0.
0.563985 0.022974 0.
0.565988 0.0229758 0.
0.56799 0.0229769 0.
0.569991 0.0229777 0.
0.571993 0.0229785 0.
0.573993 0.0229787 0.
0.575993 0.0229789 0.
0.577993 0.022979 0.
0.579994 0.0229792 0.
0.581994 0.0229794 0.
0.583995 0.0229796 0.
0.585996 0.0229797 0.
0.587996 0.0229798 0.
0.589997 0.0229798 0.
0.591997 0.0229796 0.
0.593998 0.0229795 0.
0.595999 0.0229795 0.
0.598 0.0229795 0.
0.6 0.0229795 0.
0.602002 0.0229796 0.
0.604003 0.0229798 0.
0.606005 0.0229799 0.
0.608005 0.0229802 0.
0.610006 0.0229806 0.
0.612006 0.0229807 0.
0.614007 0.0229807 0.
0.616007 0.0229807 0.
0.618008 0.0229804 0.
0.620009 0.0229801 0.
0.622009 0.0229798 0.
0.624009 0.0229796 0.
0.626009 0.0229793 0.
0.62801 0.022979 0.
0.630011 0.0229779 0.
0.632013 0.0229767 0.
0.634015 0.0229751 0.
0.636019 0.0229724 0.
0.638023 0.0229697 0.
0.64003 0.0229649 0.
0.642039 0.0229586 0.
0.644048 0.0229524 0.
0.646064 0.0229406 0.
0.648081 0.0229274 0.
0.650099 0.0229135 0.
0.652147 0.0228778 0.
0.654195 0.0228423 0.
0.656258 0.0227981 0.
0.658357 0.0227316 0.
0.660455 0.0226656 0.
0.662608 0.02258 0.
0.664792 0.0224852 0.
0.666985 0.0223823 0.
0.669379 0.0220578 0.
0.671776 0.0217377 0.
0.674296 0.02141 0.
0.676897 0.0210163 0.
0.67964 0.0205015 0.
0.682601 0.0198299 0.
0.685858 0.0188686 0.
0.689218 0.0176662 0.
0.692909 0.0163928 0.
0.696826 0.0150723 0.
0.701304 0.0134552 0.
0.706174 0.0112857 0.
0.711529 0.00911471 0.
0.717199 0.00666401 0.
0.724153 0.00466363 0.
0.733671 0.00185354 0.
0.461558 0.00195953 0.
0.471541 0.00462746 0.
0.478649 0.00659166 0.
0.484413 0.00887088 0.
0.489823 0.0112282 0.
0.494776 0.0134511 0.
0.499333 0.0154414 0.
0.503702 0.017162 0.
0.507563 0.0186812 0.
0.511164 0.0199645 0.
0.514485 0.0209522 0.
0.517611 0.0217578 0.
0.520553 0.0224476 0.
0.523273 0.022978 0.
0.525867 0.0234408 0.
0.52836 0.0238158 0.
0.530733 0.0241289 0.
0.533106 0.0244448 0.
0.535275 0.0245197 0.
0.537439 0.0245889 0.
0.539575 0.0246583 0.
0.541666 0.0247306 0.
0.543758 0.0248034 0.
0.545816 0.0248482 0.
0.547861 0.0248815 0.
0.549906 0.0249149 0.
0.551923 0.0249277 0.
0.553939 0.0249399 0.
0.555954 0.0249509 0.
0.557962 0.024957 0.
0.559971 0.0249631 0.
0.561978 0.0249677 0.
0.563982 0.0249701 0.
0.565986 0.0249725 0.
0.567988 0.0249741 0.
0.56999 0.0249753 0.
0.571991 0.0249765 0.
0.573992 0.0249769 0.
0.575992 0.0249771 0.
0.577992 0.0249772 0.
0.579993 0.0249774 0.
0.581994 0.0249775 0.
0.583995 0.0249777 0.
0.585996 0.0249779 0.
0.587996 0.0249781 0.
0.589997 0.0249781 0.
0.591998 0.0249779 0.
0.593998 0.0249777 0.
0.595999 0.0249777 0.
0.598 0.0249778 0.
0.6 0.0249779 0.
0.602002 0.0249779 0.
0.604003 0.024978 0.
0.606004 0.0249781 0.
0.608005 0.0249785 0.
0.610005 0.0249789 0.
0.612006 0.0249791 0.
0.614007 0.024979 0.
0.616008 0.024979 0.
0.618008 0.0249787 0.
0.620009 0.0249784 0.
0.62201 0.0249781 0.
0.62401 0.0249777 0.
0.626011 0.0249774 0.
0.628011 0.0249769 0.
0.630013 0.0249752 0.
0.632015 0.0249736 0.
0.634018 0.0249713 0.
0.636024 0.0249676 0.
0.638029 0.0249639 0.
0.640038 0.0249578 0.
0.64205 0.0249498 0.
0.644062 0.0249419 0.
0.646082 0.0249262 0.
0.648104 0.0249087 0.
0.650128 0.02489 0.
0.65219 0.0248437 0.
0.654252 0.0247977 0.
0.656331 0.0247414 0.
0.65845 0.0246606 0.
0.660568 0.0245803 0.
0.662762 0.0244647 0.
0.664991 0.0243374 0.
0.667241 0.024188 0.
0.669683 0.0237789 0.
0.672121 0.0233796 0.
0.674766 0.0229613 0.
0.677466 0.0224913 0.
0.680406 0.0217679 0.
0.683451 0.0209541 0.
0.686787 0.0198405 0.
0.6903 0.0185362 0.
0.694144 0.0171092 0.
0.698299 0.0155402 0.
0.702848 0.0137609 0.
0.707868 0.0114511 0.
0.713287 0.00916425 0.
0.71919 0.00675241 0.
0.726505 0.00467718 0.
0.738107 0.00199852 0.
0.458122 0.00223476 0.
0.469378 0.00468469 0.
0.476823 0.00675904 0.
0.482859 0.00900129 0.
0.488286 0.011384 0.
0.493287 0.0137179 0.
0.497914 0.0157803 0.
0.502341 0.0176597 0.
0.506421 0.0194393 0.
0.510106 0.0208491 0.
0.513542 0.021987 0.
0.516868 0.0230114 0.
0.519905 0.0238092 0.
0.522773 0.0244792 0.
0.525418 0.0250088 0.
0.527985 0.0254709 0.
0.530389 0.0258352 0.
0.532806 0.0262064 0.
0.535037 0.0263334 0.
0.537248 0.0264416 0.
0.539428 0.0265447 0.
0.541541 0.0266315 0.
0.543656 0.0267191 0.
0.545735 0.0267794 0.
0.547798 0.0268274 0.
0.549861 0.0268758 0.
0.551887 0.0268963 0.
0.55391 0.0269156 0.
0.555932 0.0269329 0.
0.557945 0.0269418 0.
0.559958 0.0269508 0.
0.561968 0.0269577 0.
0.563975 0.0269619 0.
0.565981 0.026966 0.
0.567984 0.0269688 0.
0.569987 0.0269708 0.
0.571989 0.0269728 0.
0.57399 0.0269735 0.
0.575991 0.026974 0.
0.577992 0.0269744 0.
0.579993 0.0269748 0.
0.581994 0.0269751 0.
0.583995 0.0269754 0.
0.585995 0.0269755 0.
0.587996 0.0269757 0.
0.589997 0.0269758 0.
0.591998 0.0269757 0.
0.593998 0.0269756 0.
0.595999 0.0269756 0.
0.598 0.0269757 0.
0.600001 0.0269758 0.
0.602002 0.0269758 0.
0.604003 0.0269759 0.
0.606004 0.026976 0.
0.608005 0.0269763 0.
0.610005 0.0269766 0.
0.612006 0.0269767 0.
0.614007 0.0269767 0.
0.616008 0.0269766 0.
0.618009 0.0269762 0.
0.62001 0.0269757 0.
0.622011 0.0269752 0.
0.624012 0.0269745 0.
0.626013 0.0269738 0.
0.628014 0.0269728 0.
0.630017 0.02697 0.
0.632021 0.0269671 0.
0.634026 0.0269632 0.
0.636034 0.0269572 0.
0.638042 0.0269512 0.
0.640055 0.026942 0.
0.642073 0.0269303 0.
0.644091 0.0269186 0.
0.646121 0.026895 0.
0.648154 0.0268686 0.
0.65019 0.0268399 0.
0.652273 0.0267743 0.
0.654356 0.0267095 0.
0.656464 0.0266343 0.
0.658615 0.026536 0.
0.660763 0.026439 0.
0.663007 0.0262763 0.
0.665281 0.0261009 0.
0.667596 0.0258817 0.
0.670068 0.0254168 0.
0.672528 0.0249717 0.
0.675288 0.0244742 0.
0.67809 0.0239205 0.
0.681222 0.0229688 0.
0.684414 0.0219676 0.
0.687837 0.0206669 0.
0.691442 0.0192898 0.
0.695394 0.0177491 0.
0.699721 0.0159797 0.
0.704327 0.0139992 0.
0.709474 0.0116062 0.
0.714967 0.00922855 0.
0.720993 0.00691952 0.
0.728496 0.00476288 0.
0.741114 0.00234364 0.
0.456023 0.00266841 0.
0.46754 0.00482386 0.
0.475104 0.00696679 0.
0.481313 0.00915495 0.
0.486779 0.0115269 0.
0.491817 0.0139449 0.
0.496511 0.0160849 0.
0.50104 0.018112 0.
0.505275 0.0201 0.
0.508991 0.0216277 0.
0.51258 0.0229535 0.
0.516067 0.0241695 0.
0.519168 0.025055 0.
0.522135 0.0258539 0.
0.524825 0.0264621 0.
0.527513 0.0270595 0.
0.52998 0.0274874 0.
0.532458 0.0279216 0.
0.534769 0.0281192 0.
0.537035 0.0282774 0.
0.539268 0.0284249 0.
0.541407 0.0285275 0.
0.543548 0.028631 0.
0.545651 0.0287078 0.
0.547732 0.0287714 0.
0.549815 0.0288356 0.
0.55185 0.0288643 0.
0.553881 0.0288909 0.
0.555911 0.0289147 0.
0.557928 0.0289265 0.
0.559946 0.0289383 0.
0.561959 0.0289476 0.
0.563967 0.0289536 0.
0.565975 0.0289595 0.
0.56798 0.0289634 0.
0.569984 0.0289662 0.
0.571987 0.0289691 0.
0.573988 0.0289701 0.
0.57599 0.0289708 0.
0.577991 0.0289716 0.
0.579992 0.0289721 0.
0.581993 0.0289726 0.
0.583994 0.028973 0.
0.585995 0.0289732 0.
0.587996 0.0289733 0.
0.589997 0.0289734 0.
0.591998 0.0289735 0.
0.593999 0.0289735 0.
0.596 0.0289735 0.
0.598 0.0289736 0.
0.600001 0.0289736 0.
0.602002 0.0289737 0.
0.604003 0.0289739 0.
0.606004 0.028974 0.
0.608005 0.0289741 0.
0.610005 0.0289743 0.
0.612006 0.0289744 0.
0.614007 0.0289743 0.
0.616008 0.0289742 0.
0.61801 0.0289737 0.
0.620011 0.028973 0.
0.622013 0.0289723 0.
0.624014 0.0289712 0.
0.626016 0.0289702 0.
0.628017 0.0289687 0.
0.630022 0.0289647 0.
0.632026 0.0289606 0.
0.634033 0.0289551 0.
0.636044 0.0289468 0.
0.638055 0.0289384 0.
0.640073 0.028926 0.
0.642097 0.0289105 0.
0.64412 0.028895 0.
0.646161 0.028863 0.
0.648204 0.0288274 0.
0.650253 0.0287879 0.
0.65236 0.0287018 0.
0.654466 0.0286168 0.
0.656606 0.0285206 0.
0.658794 0.028402 0.
0.660979 0.0282849 0.
0.663284 0.0280619 0.
0.665612 0.0278281 0.
0.668015 0.0275179 0.
0.670555 0.0269778 0.
0.673125 0.0264471 0.
0.675949 0.0258409 0.
0.678852 0.0251635 0.
0.682083 0.02408 0.
0.685437 0.0228786 0.
0.688909 0.0214461 0.
0.692651 0.0199377 0.
0.696693 0.0182808 0.
0.701116 0.0163744 0.
0.705759 0.0142293 0.
0.71095 0.0117836 0.
0.71649 0.00935686 0.
0.722614 0.00712826 0.
0.730192 0.0049521 0.
0.742543 0.00285985 0.
0.455001 0.00326042 0.
0.465997 0.00508019 0.
0.473544 0.00721512 0.
0.479848 0.00934016 0.
0.485329 0.0116877 0.
0.49041 0.014149 0.
0.495162 0.0163825 0.
0.499803 0.018533 0.
0.504045 0.0205894 0.
0.507873 0.0223214 0.
0.511618 0.0238511 0.
0.515146 0.0251392 0.
0.518333 0.0261619 0.
0.521404 0.0271373 0.
0.524213 0.0278838 0.
0.527007 0.028614 0.
0.529566 0.0291268 0.
0.532108 0.02962 0.
0.534503 0.0298886 0.
0.536818 0.0300953 0.
0.539105 0.0302928 0.
0.541268 0.03041 0.
0.543434 0.0305286 0.
0.545559 0.0306227 0.
0.547658 0.0307038 0.
0.549759 0.030786 0.
0.551805 0.0308248 0.
0.553846 0.03086 0.
0.555884 0.0308919 0.
0.557906 0.0309071 0.
0.559929 0.0309224 0.
0.561946 0.0309348 0.
0.563957 0.0309431 0.
0.565968 0.0309514 0.
0.567975 0.0309568 0.
0.569979 0.0309608 0.
0.571984 0.0309648 0.
0.573986 0.0309663 0.
0.575988 0.0309675 0.
0.577989 0.0309686 0.
0.579991 0.0309693 0.
0.581993 0.0309701 0.
0.583994 0.0309706 0.
0.585995 0.0309708 0.
0.587996 0.0309711 0.
0.589997 0.0309713 0.
0.591998 0.0309714 0.
0.593999 0.0309716 0.
0.596 0.0309717 0.
0.598 0.0309718 0.
0.600001 0.0309719 0.
0.602002 0.030972 0.
0.604003 0.030972 0.
0.606004 0.0309721 0.
0.608005 0.0309721 0.
0.610005 0.0309722 0.
0.612006 0.0309721 0.
0.614008 0.0309719 0.
0.616009 0.0309717 0.
0.618011 0.030971 0.
0.620013 0.03097 0.
0.622014 0.030969 0.
0.624017 0.0309674 0.
0.626019 0.0309658 0.
0.628022 0.0309636 0.
0.630028 0.0309581 0.
0.632034 0.0309525 0.
0.634043 0.0309449 0.
0.636058 0.0309334 0.
0.638072 0.0309219 0.
0.640096 0.0309056 0.
0.642126 0.0308858 0.
0.644156 0.030866 0.
0.646208 0.0308233 0.
0.648264 0.0307764 0.
0.650327 0.0307235 0.
0.652456 0.0306162 0.
0.654583 0.0305103 0.
0.656755 0.0303908 0.
0.658978 0.0302515 0.
0.661198 0.0301167 0.
0.663562 0.0298328 0.
0.665942 0.0295407 0.
0.668439 0.0291353 0.
0.671051 0.0285218 0.
0.67375 0.027883 0.
0.676659 0.0271383 0.
0.679728 0.0262278 0.
0.682994 0.0250553 0.
0.686459 0.0237186 0.
0.690019 0.0221635 0.
0.693888 0.020516 0.
0.698013 0.0187315 0.
0.702495 0.0166935 0.
0.707211 0.0144248 0.
0.712372 0.0119455 0.
0.717947 0.00952398 0.
0.724138 0.00736561 0.
0.731642 0.00523347 0.
0.742951 0.00353195 0.
0.454572 0.00399428 0.
0.464752 0.00547763 0.
0.472135 0.00752037 0.
0.478469 0.00957051 0.
0.483988 0.0118906 0.
0.489117 0.0143826 0.
0.493908 0.016694 0.
0.498579 0.0189212 0.
0.502855 0.0210321 0.
0.506812 0.0229795 0.
0.510655 0.0246756 0.
0.514189 0.0260057 0.
0.51753 0.0272304 0.
0.520689 0.0283583 0.
0.52364 0.0292684 0.
0.526507 0.030081 0.
0.529143 0.0306582 0.
0.531732 0.0311947 0.
0.534203 0.0315569 0.
0.536571 0.0318441 0.
0.538924 0.0321262 0.
0.541113 0.0322621 0.
0.543305 0.0323997 0.
0.545454 0.0325157 0.
0.547571 0.0326191 0.
0.54969 0.0327239 0.
0.551749 0.0327757 0.
0.553802 0.0328218 0.
0.555851 0.0328636 0.
0.557879 0.0328832 0.
0.559908 0.0329027 0.
0.56193 0.0329188 0.
0.563944 0.0329301 0.
0.565959 0.0329414 0.
0.567968 0.0329488 0.
0.569974 0.0329543 0.
0.57198 0.0329598 0.
0.573983 0.032962 0.
0.575985 0.0329638 0.
0.577988 0.0329654 0.
0.57999 0.0329664 0.
0.581992 0.0329674 0.
0.583993 0.0329682 0.
0.585995 0.0329686 0.
0.587996 0.0329689 0.
0.589997 0.0329693 0.
0.591998 0.0329696 0.
0.593999 0.0329699 0.
0.596 0.0329701 0.
0.598 0.0329703 0.
0.600001 0.0329705 0.
0.602002 0.0329705 0.
0.604003 0.0329705 0.
0.606004 0.0329705 0.
0.608005 0.0329703 0.
0.610006 0.0329701 0.
0.612007 0.0329699 0.
0.614008 0.0329695 0.
0.61601 0.0329691 0.
0.618012 0.0329681 0.
0.620014 0.0329667 0.
0.622017 0.0329654 0.
0.62402 0.032963 0.
0.626024 0.0329605 0.
0.628027 0.0329574 0.
0.630035 0.03295 0.
0.632043 0.0329426 0.
0.634055 0.0329324 0.
0.636075 0.0329168 0.
0.638095 0.0329012 0.
0.640124 0.0328802 0.
0.642161 0.0328553 0.
0.644198 0.0328305 0.
0.646265 0.0327738 0.
0.648336 0.0327119 0.
0.650417 0.0326413 0.
0.652567 0.0325093 0.
0.654716 0.0323791 0.
0.656921 0.0322227 0.
0.659177 0.0320423 0.
0.661436 0.0318625 0.
0.663861 0.0315094 0.
0.666288 0.0311572 0.
0.668868 0.0306557 0.
0.671515 0.03 0.
0.674338 0.0292621 0.
0.677324 0.0284025 0.
0.680568 0.0272571 0.
0.683911 0.0259755 0.
0.687456 0.0244992 0.
0.691123 0.0228262 0.
0.695051 0.0210754 0.
0.699295 0.0191533 0.
0.70384 0.0169759 0.
0.708585 0.0146146 0.
0.713725 0.0121207 0.
0.719353 0.00972816 0.
0.725559 0.00764605 0.
0.732915 0.0056052 0.
0.742958 0.0043433 0.
0.454846 0.00489955 0.
0.463857 0.00600544 0.
0.470935 0.00788758 0.
0.477265 0.00988631 0.
0.482797 0.0121577 0.
0.487914 0.0146407 0.
0.492696 0.0170086 0.
0.497392 0.0192844 0.
0.501717 0.0214617 0.
0.505783 0.0236093 0.
0.509627 0.0253781 0.
0.513256 0.026843 0.
0.516748 0.028258 0.
0.519964 0.0294883 0.
0.522992 0.0305155 0.
0.525895 0.0314057 0.
0.528658 0.0321187 0.
0.531323 0.032739 0.
0.533889 0.0332118 0.
0.536314 0.033582 0.
0.538737 0.0339558 0.
0.540955 0.0341128 0.
0.543174 0.0342696 0.
0.545349 0.0344074 0.
0.547484 0.0345333 0.
0.54962 0.0346609 0.
0.551693 0.0347263 0.
0.553758 0.0347833 0.
0.555818 0.0348353 0.
0.557852 0.0348591 0.
0.559886 0.034883 0.
0.561914 0.0349029 0.
0.563932 0.0349171 0.
0.565949 0.0349313 0.
0.567961 0.0349409 0.
0.569968 0.0349479 0.
0.571976 0.0349549 0.
0.57398 0.0349578 0.
0.575983 0.0349601 0.
0.577986 0.0349623 0.
0.579989 0.0349635 0.
0.581991 0.0349647 0.
0.583993 0.0349657 0.
0.585994 0.0349663 0.
0.587996 0.0349668 0.
0.589997 0.0349673 0.
0.591998 0.0349677 0.
0.593999 0.0349682 0.
0.596 0.0349685 0.
0.598 0.0349689 0.
0.600001 0.0349692 0.
0.602002 0.0349691 0.
0.604003 0.034969 0.
0.606004 0.0349688 0.
0.608005 0.0349685 0.
0.610006 0.0349681 0.
0.612007 0.0349677 0.
0.614009 0.0349671 0.
0.616011 0.0349665 0.
0.618013 0.0349652 0.
0.620016 0.0349635 0.
0.622019 0.0349618 0.
0.624023 0.0349586 0.
0.626028 0.0349553 0.
0.628033 0.0349512 0.
0.630043 0.034942 0.
0.632053 0.0349327 0.
0.634068 0.0349198 0.
0.636092 0.0349001 0.
0.638117 0.0348804 0.
0.640153 0.0348547 0.
0.642197 0.0348247 0.
0.644241 0.0347949 0.
0.646322 0.0347238 0.
0.648408 0.0346468 0.
0.650507 0.034558 0.
0.652679 0.0344012 0.
0.654849 0.0342465 0.
0.65709 0.0340501 0.
0.65938 0.0338278 0.
0.661684 0.0336012 0.
0.664173 0.0331731 0.
0.666656 0.0327513 0.
0.669354 0.0321263 0.
0.672079 0.0313884 0.
0.675 0.0305023 0.
0.677998 0.0295909 0.
0.681398 0.0282425 0.
0.684834 0.0268471 0.
0.688422 0.0252303 0.
0.692186 0.0234587 0.
0.696193 0.0215811 0.
0.700474 0.0195765 0.
0.705077 0.0172743 0.
0.709845 0.0148481 0.
0.714957 0.0123532 0.
0.720579 0.0100076 0.
0.72677 0.00800396 0.
0.733836 0.00609888 0.
0.742569 0.00528894 0.
0.455514 0.00589152 0.
0.463297 0.00666114 0.
0.470018 0.00835222 0.
0.476239 0.0102777 0.
0.481738 0.0124948 0.
0.486827 0.0149443 0.
0.491611 0.017366 0.
0.4963 0.0196731 0.
0.500659 0.0219067 0.
0.504793 0.0242013 0.
0.508624 0.0260363 0.
0.512349 0.027659 0.
0.515944 0.029202 0.
0.519172 0.0304907 0.
0.522292 0.0317067 0.
0.525255 0.0326994 0.
0.528152 0.0335547 0.
0.530883 0.034251 0.
0.533547 0.0348364 0.
0.536007 0.0352663 0.
0.538473 0.0357122 0.
0.540733 0.0359055 0.
0.542983 0.0360903 0.
0.545193 0.0362582 0.
0.547349 0.036405 0.
0.549508 0.0365538 0.
0.551602 0.0366407 0.
0.553686 0.0367178 0.
0.555764 0.0367891 0.
0.557806 0.0368179 0.
0.559848 0.0368468 0.
0.561883 0.0368721 0.
0.563907 0.0368923 0.
0.565932 0.0369126 0.
0.567947 0.0369261 0.
0.569958 0.0369357 0.
0.571968 0.0369454 0.
0.573974 0.0369498 0.
0.575978 0.0369535 0.
0.577983 0.0369569 0.
0.579986 0.0369588 0.
0.581989 0.0369607 0.
0.583992 0.0369622 0.
0.585993 0.0369631 0.
0.587995 0.0369639 0.
0.589997 0.0369647 0.
0.591998 0.0369654 0.
0.593999 0.036966 0.
0.596 0.0369665 0.
0.598 0.0369669 0.
0.600001 0.0369674 0.
0.602002 0.0369671 0.
0.604003 0.0369669 0.
0.606004 0.0369666 0.
0.608005 0.036966 0.
0.610006 0.0369653 0.
0.612008 0.0369645 0.
0.61401 0.0369635 0.
0.616013 0.0369624 0.
0.618016 0.0369604 0.
0.62002 0.0369579 0.
0.622024 0.0369554 0.
0.62403 0.0369506 0.
0.626036 0.0369455 0.
0.628043 0.0369395 0.
0.630057 0.0369266 0.
0.632071 0.0369138 0.
0.634092 0.0368957 0.
0.636124 0.0368683 0.
0.638157 0.0368411 0.
0.640201 0.0368093 0.
0.642254 0.0367743 0.
0.644306 0.0367393 0.
0.646414 0.0366403 0.
0.648526 0.0365354 0.
0.650653 0.03642 0.
0.652846 0.0362445 0.
0.655035 0.036071 0.
0.657318 0.0358274 0.
0.659642 0.0355599 0.
0.661994 0.0352816 0.
0.664513 0.0348043 0.
0.667058 0.0343153 0.
0.669869 0.0335705 0.
0.672685 0.0327371 0.
0.675724 0.0316535 0.
0.678806 0.0305719 0.
0.682223 0.0291811 0.
0.685752 0.0276648 0.
0.689345 0.025946 0.
0.693182 0.0240753 0.
0.697266 0.0220789 0.
0.701603 0.0199757 0.
0.706187 0.017618 0.
0.710956 0.0151496 0.
0.716027 0.0126682 0.
0.721603 0.0103809 0.
0.727701 0.00845584 0.
0.73443 0.00671608 0.
0.741993 0.00625141 0.
0.456268 0.00688995 0.
0.463021 0.00739629 0.
0.46936 0.00891206 0.
0.475402 0.0107576 0.
0.480824 0.0129051 0.
0.485875 0.0153182 0.
0.49063 0.0177603 0.
0.49529 0.0200944 0.
0.499671 0.0223707 0.
0.503791 0.0247091 0.
0.507648 0.026669 0.
0.511468 0.0284596 0.
0.51508 0.0300348 0.
0.518359 0.0314437 0.
0.521559 0.032849 0.
0.524597 0.0339383 0.
0.527614 0.0349265 0.
0.530359 0.0356596 0.
0.533095 0.0363337 0.
0.535608 0.0368504 0.
0.538132 0.0373932 0.
0.540462 0.0376575 0.
0.542759 0.0378866 0.
0.545017 0.0380968 0.
0.5472 0.0382666 0.
0.549388 0.0384387 0.
0.551507 0.0385496 0.
0.55361 0.0386489 0.
0.555709 0.0387416 0.
0.557759 0.0387756 0.
0.559809 0.0388097 0.
0.561852 0.0388406 0.
0.563883 0.038867 0.
0.565914 0.0388936 0.
0.567934 0.0389111 0.
0.569947 0.0389234 0.
0.571961 0.0389358 0.
0.573968 0.0389418 0.
0.575974 0.0389468 0.
0.577979 0.0389515 0.
0.579983 0.038954 0.
0.581987 0.0389566 0.
0.58399 0.0389586 0.
0.585992 0.0389599 0.
0.587995 0.0389611 0.
0.589996 0.0389621 0.
0.591998 0.038963 0.
0.593999 0.0389638 0.
0.596 0.0389645 0.
0.598 0.038965 0.
0.600001 0.0389655 0.
0.602002 0.0389652 0.
0.604003 0.0389649 0.
0.606004 0.0389644 0.
0.608005 0.0389635 0.
0.610007 0.0389625 0.
0.612009 0.0389613 0.
0.614012 0.0389598 0.
0.616014 0.0389583 0.
0.618019 0.0389556 0.
0.620024 0.0389522 0.
0.622028 0.0389489 0.
0.624036 0.0389425 0.
0.626044 0.0389356 0.
0.628053 0.0389276 0.
0.630071 0.0389111 0.
0.63209 0.0388945 0.
0.634116 0.0388711 0.
0.636157 0.0388358 0.
0.638198 0.0388007 0.
0.640251 0.0387627 0.
0.642312 0.0387223 0.
0.644373 0.038682 0.
0.646512 0.038551 0.
0.648655 0.0384144 0.
0.650813 0.0382689 0.
0.653033 0.0380715 0.
0.655249 0.0378765 0.
0.657597 0.0375681 0.
0.659981 0.0372387 0.
0.662419 0.0368721 0.
0.664994 0.036303 0.
0.667592 0.0357275 0.
0.670419 0.0349492 0.
0.673336 0.0339978 0.
0.676455 0.0327462 0.
0.679655 0.0314841 0.
0.683067 0.0300396 0.
0.686628 0.028444 0.
0.690272 0.026616 0.
0.694137 0.0246759 0.
0.698268 0.0225814 0.
0.702629 0.0203882 0.
0.707204 0.0179966 0.
0.711942 0.015507 0.
0.716955 0.0130625 0.
0.72245 0.0108383 0.
0.728393 0.00900418 0.
0.734764 0.00743261 0.
0.741416 0.00723565 0.
0.456884 0.00787224 0.
0.46287 0.00819314 0.
0.468877 0.00954788 0.
0.474706 0.0113099 0.
0.480022 0.0133825 0.
0.485008 0.0157425 0.
0.489746 0.0181936 0.
0.494379 0.0205555 0.
0.498713 0.0228445 0.
0.502811 0.0251932 0.
0.50671 0.0272858 0.
0.510598 0.029225 0.
0.514177 0.0308025 0.
0.517552 0.0323625 0.
0.520811 0.0339032 0.
0.523926 0.035098 0.
0.52696 0.0361679 0.
0.529791 0.0370099 0.
0.532609 0.037793 0.
0.535202 0.0384171 0.
0.537783 0.0390561 0.
0.540188 0.0394017 0.
0.542533 0.0396746 0.
0.544842 0.03993 0.
0.54705 0.0401184 0.
0.549263 0.0403113 0.
0.551407 0.0404471 0.
0.55353 0.0405705 0.
0.555649 0.040688 0.
0.557707 0.0407271 0.
0.559765 0.0407663 0.
0.561816 0.040803 0.
0.563854 0.0408366 0.
0.565892 0.0408704 0.
0.567917 0.0408928 0.
0.569934 0.0409085 0.
0.571951 0.0409243 0.
0.57396 0.0409322 0.
0.575967 0.0409389 0.
0.577975 0.0409453 0.
0.579979 0.0409486 0.
0.581984 0.0409519 0.
0.583988 0.0409547 0.
0.585991 0.0409563 0.
0.587993 0.040958 0.
0.589995 0.0409594 0.
0.591997 0.0409605 0.
0.593998 0.0409616 0.
0.595999 0.0409624 0.
0.598 0.0409631 0.
0.600001 0.0409638 0.
0.602002 0.0409633 0.
0.604003 0.0409628 0.
0.606005 0.0409622 0.
0.608006 0.0409608 0.
0.610008 0.0409595 0.
0.61201 0.0409578 0.
0.614014 0.0409557 0.
0.616017 0.0409535 0.
0.618022 0.0409499 0.
0.620029 0.0409456 0.
0.622035 0.0409413 0.
0.624044 0.0409327 0.
0.626054 0.0409237 0.
0.628066 0.040913 0.
0.630089 0.0408919 0.
0.632112 0.0408708 0.
0.634145 0.0408412 0.
0.636194 0.0407975 0.
0.638243 0.040754 0.
0.640307 0.040709 0.
0.642378 0.0406623 0.
0.644448 0.040616 0.
0.646615 0.0404496 0.
0.648784 0.0402805 0.
0.650974 0.0401066 0.
0.653219 0.0398927 0.
0.65546 0.0396785 0.
0.65788 0.0392983 0.
0.660324 0.0389067 0.
0.662856 0.0384427 0.
0.665494 0.0377777 0.
0.668195 0.0370636 0.
0.671068 0.0361795 0.
0.674025 0.0351196 0.
0.677174 0.0337867 0.
0.680486 0.0323774 0.
0.683914 0.0308671 0.
0.687483 0.029183 0.
0.691181 0.0272559 0.
0.695076 0.0252395 0.
0.699241 0.0230771 0.
0.703583 0.0208127 0.
0.70814 0.0183962 0.
0.712832 0.015916 0.
0.717792 0.0135148 0.
0.723163 0.0113682 0.
0.728936 0.00961596 0.
0.734961 0.00820658 0.
0.740947 0.00820196 0.
0.457367 0.00890398 0.
0.462828 0.00904725 0.
0.468531 0.0102467 0.
0.474111 0.0119229 0.
0.479317 0.0139179 0.
0.484231 0.0162241 0.
0.48894 0.0186723 0.
0.493518 0.0210416 0.
0.497796 0.0233321 0.
0.501893 0.025698 0.
0.505825 0.0278969 0.
0.509689 0.029902 0.
0.513306 0.0315659 0.
0.516792 0.0332701 0.
0.52008 0.0348645 0.
0.523237 0.0361793 0.
0.526317 0.0373755 0.
0.529244 0.0383434 0.
0.532133 0.0392198 0.
0.534803 0.0399319 0.
0.5374 0.0406208 0.
0.539871 0.0410575 0.
0.54226 0.0413829 0.
0.544625 0.0416974 0.
0.546869 0.0419196 0.
0.549121 0.0421478 0.
0.551296 0.0423192 0.
0.553439 0.0424746 0.
0.55558 0.0426251 0.
0.557647 0.0426697 0.
0.559715 0.0427144 0.
0.561775 0.0427576 0.
0.56382 0.0427998 0.
0.565865 0.0428422 0.
0.567896 0.0428706 0.
0.569917 0.0428905 0.
0.571939 0.0429104 0.
0.57395 0.0429207 0.
0.57596 0.0429296 0.
0.577969 0.042938 0.
0.579975 0.0429423 0.
0.58198 0.0429466 0.
0.583985 0.0429502 0.
0.585989 0.0429524 0.
0.587992 0.0429547 0.
0.589994 0.0429565 0.
0.591996 0.0429579 0.
0.593998 0.0429593 0.
0.595999 0.0429603 0.
0.598 0.0429612 0.
0.600001 0.0429621 0.
0.602003 0.0429615 0.
0.604004 0.0429608 0.
0.606005 0.0429599 0.
0.608007 0.0429581 0.
0.610009 0.0429563 0.
0.612013 0.0429539 0.
0.614017 0.042951 0.
0.616021 0.042948 0.
0.618027 0.0429434 0.
0.620035 0.0429379 0.
0.622042 0.0429325 0.
0.624055 0.0429212 0.
0.626067 0.0429093 0.
0.628082 0.0428954 0.
0.630111 0.0428685 0.
0.63214 0.0428417 0.
0.63418 0.0428047 0.
0.636238 0.0427515 0.
0.638295 0.0426986 0.
0.640371 0.0426444 0.
0.642457 0.0425888 0.
0.644543 0.0425317 0.
0.64673 0.0423213 0.
0.648918 0.0421101 0.
0.651149 0.0418885 0.
0.653451 0.0416292 0.
0.65574 0.0413779 0.
0.658204 0.0409413 0.
0.660681 0.0405042 0.
0.663284 0.0399558 0.
0.665976 0.0392217 0.
0.668776 0.0383754 0.
0.671696 0.0373938 0.
0.67474 0.0361478 0.
0.677875 0.0347737 0.
0.681267 0.0332653 0.
0.684727 0.0316939 0.
0.688304 0.0299074 0.
0.692056 0.0278862 0.
0.695984 0.025785 0.
0.700153 0.0235923 0.
0.704477 0.021265 0.
0.709009 0.0188303 0.
0.713663 0.0163707 0.
0.718555 0.0140247 0.
0.723768 0.0119693 0.
0.729346 0.0102961 0.
0.735073 0.00904267 0.
0.740574 0.00918815 0.
0.457827 0.00993315 0.
0.462927 0.00995559 0.
0.468344 0.0110216 0.
0.473676 0.0126151 0.
0.478741 0.0145294 0.
0.483576 0.016781 0.
0.488234 0.0192087 0.
0.492736 0.0215675 0.
0.496984 0.0238719 0.
0.501059 0.0262438 0.
0.50498 0.028505 0.
0.508827 0.0305552 0.
0.512493 0.0323274 0.
0.51604 0.0341293 0.
0.519332 0.0357469 0.
0.522553 0.0372383 0.
0.525673 0.0385438 0.
0.528687 0.0396285 0.
0.531582 0.0405434 0.
0.534311 0.0413457 0.
0.536959 0.042124 0.
0.53952 0.0426837 0.
0.541968 0.0430742 0.
0.544402 0.0434603 0.
0.546684 0.0437175 0.
0.548975 0.0439814 0.
0.551184 0.0441894 0.
0.553348 0.0443772 0.
0.55551 0.0445617 0.
0.557588 0.0446121 0.
0.559665 0.0446623 0.
0.561733 0.044712 0.
0.563786 0.0447628 0.
0.565838 0.0448138 0.
0.567874 0.0448483 0.
0.569901 0.0448724 0.
0.571927 0.0448966 0.
0.57394 0.0449093 0.
0.575952 0.0449203 0.
0.577963 0.0449307 0.
0.57997 0.044936 0.
0.581977 0.0449412 0.
0.583983 0.0449457 0.
0.585986 0.0449485 0.
0.58799 0.0449514 0.
0.589993 0.0449536 0.
0.591995 0.0449553 0.
0.593997 0.0449571 0.
0.595999 0.0449583 0.
0.598 0.0449593 0.
0.600001 0.0449604 0.
0.602003 0.0449596 0.
0.604004 0.0449588 0.
0.606006 0.0449576 0.
0.608008 0.0449553 0.
0.610011 0.044953 0.
0.612015 0.04495 0.
0.614019 0.0449462 0.
0.616024 0.0449425 0.
0.618032 0.0449368 0.
0.620041 0.0449302 0.
0.62205 0.0449236 0.
0.624065 0.0449096 0.
0.62608 0.0448949 0.
0.628098 0.0448777 0.
0.630133 0.044845 0.
0.632168 0.0448125 0.
0.634215 0.044768 0.
0.636281 0.0447054 0.
0.638347 0.044643 0.
0.640436 0.0445795 0.
0.642536 0.0445149 0.
0.644639 0.044445 0.
0.646846 0.0441905 0.
0.649053 0.0439368 0.
0.651332 0.0436653 0.
0.653694 0.0433573 0.
0.656051 0.0430495 0.
0.658565 0.0425457 0.
0.661085 0.0420483 0.
0.663782 0.041384 0.
0.666501 0.0405903 0.
0.669369 0.0396419 0.
0.672321 0.0385819 0.
0.675443 0.0371542 0.
0.678617 0.0356846 0.
0.682024 0.0341415 0.
0.685511 0.0324992 0.
0.68908 0.0306261 0.
0.692867 0.0285174 0.
0.696825 0.0263528 0.
0.700978 0.0241392 0.
0.705263 0.0217812 0.
0.709759 0.0193314 0.
0.714385 0.0168969 0.
0.719183 0.014615 0.
0.724248 0.0126501 0.
0.729589 0.0110567 0.
0.734996 0.00994521 0.
0.740155 0.0102174 0.
0.458356 0.011005 0.
0.463187 0.0109226 0.
0.468308 0.0118784 0.
0.473408 0.0133886 0.
0.478318 0.0152263 0.
0.483062 0.0174251 0.
0.487643 0.0198142 0.
0.492061 0.022156 0.
0.496269 0.0244696 0.
0.500324 0.0268414 0.
0.50422 0.0291353 0.
0.508042 0.0312328 0.
0.511719 0.0330911 0.
0.51529 0.0349268 0.
0.518609 0.0366221 0.
0.521887 0.038273 0.
0.525032 0.0396462 0.
0.528067 0.0408231 0.
0.530987 0.0418187 0.
0.533806 0.0427386 0.
0.536504 0.0436034 0.
0.539157 0.0442945 0.
0.541658 0.0447473 0.
0.544143 0.0451906 0.
0.546457 0.0454756 0.
0.548777 0.045773 0.
0.551018 0.04602 0.
0.553199 0.0462334 0.
0.555382 0.0464444 0.
0.557484 0.0465144 0.
0.559585 0.0465831 0.
0.561674 0.0466489 0.
0.563734 0.0467081 0.
0.565795 0.0467676 0.
0.567839 0.04681 0.
0.569873 0.0468413 0.
0.571906 0.0468728 0.
0.573924 0.04689 0.
0.575939 0.0469049 0.
0.577953 0.046919 0.
0.579962 0.0469257 0.
0.58197 0.0469324 0.
0.583978 0.0469383 0.
0.585983 0.0469422 0.
0.587988 0.0469461 0.
0.589991 0.0469491 0.
0.591994 0.0469515 0.
0.593996 0.0469538 0.
0.595998 0.0469553 0.
0.598 0.0469564 0.
0.600001 0.0469576 0.
0.602003 0.0469565 0.
0.604005 0.0469555 0.
0.606007 0.0469539 0.
0.60801 0.0469508 0.
0.610013 0.0469477 0.
0.612018 0.0469436 0.
0.614024 0.0469384 0.
0.616031 0.0469332 0.
0.618041 0.0469258 0.
0.620052 0.0469174 0.
0.622064 0.0469089 0.
0.624082 0.0468903 0.
0.626102 0.0468707 0.
0.628125 0.0468478 0.
0.63017 0.0468054 0.
0.632214 0.0467634 0.
0.634271 0.0467094 0.
0.636346 0.0466378 0.
0.63842 0.0465666 0.
0.640539 0.0464816 0.
0.642672 0.0463931 0.
0.644809 0.0462948 0.
0.647031 0.0460125 0.
0.649248 0.0457295 0.
0.651562 0.0454081 0.
0.653964 0.0450569 0.
0.656381 0.0447002 0.
0.658938 0.0441371 0.
0.661507 0.0435757 0.
0.664293 0.042793 0.
0.667071 0.0419118 0.
0.670004 0.040822 0.
0.672968 0.0396943 0.
0.676133 0.0381388 0.
0.67934 0.0365946 0.
0.68274 0.0350083 0.
0.686248 0.0332965 0.
0.689828 0.0313408 0.
0.693608 0.0291707 0.
0.697561 0.0269678 0.
0.70169 0.0247347 0.
0.705935 0.0223661 0.
0.710365 0.0199186 0.
0.714947 0.0175148 0.
0.719647 0.0152994 0.
0.724565 0.0134155 0.
0.729655 0.0119023 0.
0.734753 0.0108971 0.
0.739643 0.01122 0.
0.458942 0.0120756 0.
0.463545 0.011926 0.
0.468405 0.0128096 0.
0.473275 0.0142407 0.
0.478035 0.0160053 0.
0.482667 0.0181503 0.
0.487165 0.0204958 0.
0.491496 0.0228138 0.
0.495663 0.025129 0.
0.499673 0.0274912 0.
0.503535 0.0298038 0.
0.507315 0.031937 0.
0.510997 0.0338652 0.
0.514562 0.0357091 0.
0.517909 0.0374929 0.
0.52122 0.0392534 0.
0.524359 0.0406813 0.
0.527437 0.0419983 0.
0.530394 0.0430713 0.
0.533304 0.0440986 0.
0.536036 0.0450207 0.
0.538726 0.0458032 0.
0.541257 0.0463051 0.
0.543799 0.0468226 0.
0.546171 0.0471729 0.
0.54853 0.0475284 0.
0.550818 0.0478308 0.
0.553026 0.0480722 0.
0.555236 0.048312 0.
0.557368 0.0484073 0.
0.559498 0.0484985 0.
0.561612 0.0485837 0.
0.563681 0.0486516 0.
0.56575 0.0487199 0.
0.567803 0.0487706 0.
0.569844 0.0488094 0.
0.571885 0.0488485 0.
0.573907 0.0488703 0.
0.575925 0.0488892 0.
0.577943 0.048907 0.
0.579953 0.0489153 0.
0.581964 0.0489236 0.
0.583973 0.0489307 0.
0.585979 0.0489357 0.
0.587985 0.0489407 0.
0.589989 0.0489446 0.
0.591992 0.0489476 0.
0.593995 0.0489506 0.
0.595998 0.0489522 0.
0.597999 0.0489535 0.
0.600001 0.0489548 0.
0.602003 0.0489535 0.
0.604005 0.0489521 0.
0.606008 0.0489502 0.
0.608012 0.0489462 0.
0.610016 0.0489423 0.
0.612022 0.0489371 0.
0.614029 0.0489305 0.
0.616037 0.0489239 0.
0.618049 0.0489147 0.
0.620063 0.0489044 0.
0.622077 0.048894 0.
0.6241 0.0488706 0.
0.626124 0.0488461 0.
0.628153 0.0488171 0.
0.630208 0.0487646 0.
0.632262 0.0487125 0.
0.634329 0.0486484 0.
0.636413 0.0485674 0.
0.638497 0.0484867 0.
0.640652 0.048375 0.
0.642827 0.0482562 0.
0.645006 0.0481226 0.
0.647257 0.0478101 0.
0.649502 0.0474978 0.
0.651858 0.0471043 0.
0.654283 0.0466791 0.
0.656752 0.0462416 0.
0.659352 0.0456408 0.
0.661965 0.0450365 0.
0.664804 0.0441729 0.
0.66766 0.0431798 0.
0.67065 0.0419652 0.
0.673665 0.0406964 0.
0.676804 0.0391085 0.
0.680049 0.0375069 0.
0.683439 0.0358635 0.
0.686938 0.0340835 0.
0.690528 0.032065 0.
0.694302 0.0298456 0.
0.698214 0.0276314 0.
0.702302 0.0253827 0.
0.706498 0.0230172 0.
0.710836 0.0205919 0.
0.715352 0.0182263 0.
0.719962 0.0160722 0.
0.724722 0.0142565 0.
0.729605 0.0128248 0.
0.734405 0.0118958 0.
0.739038 0.0122394 0.
0.459545 0.0131378 0.
0.463959 0.0129616 0.
0.468583 0.0137926 0.
0.47324 0.015154 0.
0.477854 0.0168499 0.
0.482364 0.018941 0.
0.486758 0.0212374 0.
0.491017 0.0235298 0.
0.495132 0.0258359 0.
0.499074 0.0281814 0.
0.50291 0.0305082 0.
0.506657 0.0326655 0.
0.510331 0.0346489 0.
0.513862 0.0365084 0.
0.51725 0.0383687 0.
0.52055 0.0401722 0.
0.523699 0.041699 0.
0.526803 0.0431362 0.
0.529801 0.0442934 0.
0.532743 0.0453759 0.
0.535489 0.0463399 0.
0.538235 0.0472397 0.
0.540837 0.0478425 0.
0.543443 0.0484416 0.
0.545881 0.0488608 0.
0.548282 0.0492743 0.
0.550621 0.049638 0.
0.552854 0.0499057 0.
0.555091 0.0501681 0.
0.557252 0.0502888 0.
0.559408 0.0504047 0.
0.561544 0.050513 0.
0.563621 0.0505891 0.
0.5657 0.0506655 0.
0.567761 0.0507248 0.
0.569811 0.0507723 0.
0.57186 0.0508202 0.
0.573887 0.0508474 0.
0.575909 0.0508709 0.
0.57793 0.0508932 0.
0.579943 0.0509032 0.
0.581955 0.0509131 0.
0.583966 0.0509219 0.
0.585974 0.0509282 0.
0.587981 0.0509346 0.
0.589986 0.0509395 0.
0.59199 0.0509432 0.
0.593994 0.0509469 0.
0.595997 0.0509489 0.
0.597999 0.0509503 0.
0.600001 0.0509517 0.
0.602004 0.05095 0.
0.604007 0.0509483 0.
0.60601 0.0509459 0.
0.608015 0.050941 0.
0.610019 0.0509361 0.
0.612026 0.0509296 0.
0.614036 0.0509212 0.
0.616046 0.0509127 0.
0.618061 0.0509016 0.
0.620077 0.0508891 0.
0.622094 0.0508767 0.
0.624122 0.0508478 0.
0.626151 0.0508174 0.
0.628186 0.0507814 0.
0.630251 0.0507174 0.
0.632316 0.050654 0.
0.634393 0.0505801 0.
0.636486 0.0504909 0.
0.638579 0.050402 0.
0.640769 0.0502586 0.
0.642982 0.0501082 0.
0.645202 0.0499426 0.
0.647482 0.0496034 0.
0.649754 0.0492629 0.
0.652153 0.0487881 0.
0.654601 0.0482891 0.
0.657138 0.0477672 0.
0.659806 0.0471001 0.
0.66251 0.0463894 0.
0.665354 0.0454617 0.
0.668248 0.044395 0.
0.67129 0.043084 0.
0.674356 0.0416784 0.
0.677484 0.040045 0.
0.680718 0.038418 0.
0.684105 0.0367292 0.
0.687604 0.034868 0.
0.69118 0.0328043 0.
0.694926 0.030554 0.
0.698812 0.02833 0.
0.702843 0.0260788 0.
0.706989 0.0237199 0.
0.711227 0.0213283 0.
0.715645 0.019012 0.
0.720161 0.0169146 0.
0.724768 0.0151672 0.
0.729455 0.0138096 0.
0.734033 0.0129387 0.
0.738413 0.0132514 0.
0.46016 0.0142171 0.
0.464388 0.0140288 0.
0.468797 0.0148225 0.
0.473266 0.0161127 0.
0.477726 0.0177478 0.
0.482118 0.0197865 0.
0.486412 0.0220301 0.
0.490603 0.0242967 0.
0.494655 0.0265913 0.
0.498547 0.0289249 0.
0.502346 0.0312539 0.
0.506064 0.0334296 0.
0.509703 0.035448 0.
0.513226 0.037335 0.
0.516626 0.0392535 0.
0.51989 0.0410723 0.
0.52306 0.0427123 0.
0.526173 0.044237 0.
0.529183 0.0454543 0.
0.532142 0.0465991 0.
0.534952 0.0476459 0.
0.53775 0.0486501 0.
0.540423 0.0493585 0.
0.543075 0.0500139 0.
0.545565 0.0504908 0.
0.547991 0.0509496 0.
0.550374 0.0513734 0.
0.552653 0.0516701 0.
0.55495 0.0519705 0.
0.557139 0.0521322 0.
0.559307 0.0522875 0.
0.561458 0.0524312 0.
0.563548 0.0525156 0.
0.565639 0.0526004 0.
0.567712 0.0526696 0.
0.569771 0.0527278 0.
0.57183 0.0527864 0.
0.573862 0.0528204 0.
0.575889 0.0528495 0.
0.577914 0.0528772 0.
0.57993 0.052889 0.
0.581945 0.0529009 0.
0.583958 0.0529115 0.
0.585967 0.0529195 0.
0.587976 0.0529275 0.
0.589983 0.0529336 0.
0.591987 0.0529382 0.
0.593992 0.0529427 0.
0.595995 0.052945 0.
0.597998 0.0529467 0.
0.600001 0.0529483 0.
0.602005 0.0529461 0.
0.604008 0.0529439 0.
0.606012 0.0529409 0.
0.608018 0.0529349 0.
0.610024 0.0529289 0.
0.612033 0.0529208 0.
0.614045 0.0529101 0.
0.616057 0.0528995 0.
0.618074 0.052886 0.
0.620094 0.0528712 0.
0.622114 0.0528565 0.
0.624148 0.0528208 0.
0.626183 0.0527835 0.
0.628225 0.0527387 0.
0.630303 0.0526604 0.
0.632379 0.0525828 0.
0.634469 0.052498 0.
0.636575 0.0524015 0.
0.63868 0.0523054 0.
0.640893 0.0521078 0.
0.643123 0.0519003 0.
0.645372 0.0516849 0.
0.647695 0.05133 0.
0.650004 0.0509753 0.
0.652452 0.0504269 0.
0.654909 0.0498716 0.
0.65752 0.0492737 0.
0.660255 0.0485487 0.
0.663045 0.0477215 0.
0.665921 0.0466941 0.
0.66886 0.0455159 0.
0.671903 0.0441789 0.
0.675008 0.0426692 0.
0.678137 0.04099 0.
0.681368 0.0393225 0.
0.684729 0.0376067 0.
0.688217 0.0356756 0.
0.691785 0.0335629 0.
0.695501 0.031296 0.
0.699356 0.0290682 0.
0.703324 0.0268219 0.
0.70741 0.0244748 0.
0.711573 0.0221165 0.
0.715869 0.0198546 0.
0.720279 0.0178155 0.
0.724752 0.0161301 0.
0.729235 0.0148476 0.
0.733618 0.0140357 0.
0.737797 0.0142872 0.
0.460811 0.0152672 0.
0.464865 0.0151351 0.
0.469085 0.0159024 0.
0.473377 0.0171303 0.
0.477694 0.0187151 0.
0.481971 0.0207035 0.
0.486169 0.0228947 0.
0.49029 0.0251378 0.
0.494263 0.027414 0.
0.49811 0.0297328 0.
0.501864 0.0320534 0.
0.505547 0.0342426 0.
0.509149 0.0362843 0.
0.512641 0.0381836 0.
0.516019 0.0401324 0.
0.519265 0.0419854 0.
0.522445 0.0437221 0.
0.52555 0.0452729 0.
0.528577 0.0465878 0.
0.531545 0.047808 0.
0.53441 0.04893 0.
0.537231 0.0499867 0.
0.539939 0.0507769 0.
0.542611 0.0514979 0.
0.545178 0.0520687 0.
0.547654 0.0525904 0.
0.550102 0.0530946 0.
0.552442 0.0534299 0.
0.554803 0.05377 0.
0.557025 0.0539727 0.
0.559205 0.0541677 0.
0.561371 0.0543491 0.
0.563474 0.0544419 0.
0.565578 0.0545351 0.
0.567662 0.0546141 0.
0.569731 0.0546831 0.
0.5718 0.0547525 0.
0.573838 0.0547932 0.
0.575869 0.054828 0.
0.577899 0.0548611 0.
0.579916 0.0548749 0.
0.581934 0.0548887 0.
0.58395 0.0549011 0.
0.58596 0.0549108 0.
0.587971 0.0549205 0.
0.589979 0.0549278 0.
0.591984 0.0549331 0.
0.59399 0.0549385 0.
0.595994 0.0549412 0.
0.597998 0.0549431 0.
0.600001 0.054945 0.
0.602005 0.0549423 0.
0.60401 0.0549396 0.
0.606014 0.0549359 0.
0.608022 0.0549288 0.
0.610029 0.0549218 0.
0.612039 0.054912 0.
0.614054 0.0548991 0.
0.616068 0.0548862 0.
0.618088 0.0548704 0.
0.620111 0.0548533 0.
0.622134 0.0548362 0.
0.624174 0.0547937 0.
0.626215 0.0547494 0.
0.628265 0.0546957 0.
0.630355 0.054603 0.
0.632443 0.0545112 0.
0.634546 0.0544157 0.
0.636665 0.054312 0.
0.638783 0.0542087 0.
0.641018 0.0539526 0.
0.643266 0.0536876 0.
0.645547 0.0534255 0.
0.647916 0.0530463 0.
0.650275 0.0526614 0.
0.652807 0.0520215 0.
0.655329 0.0513955 0.
0.657994 0.0507123 0.
0.660728 0.0499546 0.
0.663583 0.0490191 0.
0.666484 0.0479107 0.
0.669463 0.0466137 0.
0.672502 0.0452346 0.
0.675615 0.0436631 0.
0.678739 0.041959 0.
0.681978 0.0402429 0.
0.685311 0.0384973 0.
0.688771 0.0365175 0.
0.692318 0.0343562 0.
0.696001 0.0320904 0.
0.699815 0.0298637 0.
0.70372 0.0276293 0.
0.707734 0.0253021 0.
0.71183 0.0229765 0.
0.716003 0.0207698 0.
0.720299 0.0187868 0.
0.72464 0.0171504 0.
0.728938 0.0159373 0.
0.733134 0.0151871 0.
0.737139 0.0153432 0.
0.461501 0.0163429 0.
0.465403 0.0162863 0.
0.46946 0.0170324 0.
0.473601 0.0182153 0.
0.477782 0.0197607 0.
0.481939 0.0216994 0.
0.486048 0.0238418 0.
0.490078 0.0260561 0.
0.493964 0.0283081 0.
0.497762 0.0306066 0.
0.501466 0.0329115 0.
0.505105 0.0351091 0.
0.508645 0.0371568 0.
0.512098 0.0390686 0.
0.515457 0.0410251 0.
0.518685 0.042915 0.
0.521852 0.044722 0.
0.524949 0.0462969 0.
0.527993 0.0477186 0.
0.530961 0.0489893 0.
0.53385 0.0501482 0.
0.536675 0.0512491 0.
0.539434 0.0521574 0.
0.542139 0.0529633 0.
0.544781 0.0536349 0.
0.547304 0.0542182 0.
0.549809 0.0548038 0.
0.552198 0.0551619 0.
0.554595 0.0555378 0.
0.55685 0.0557866 0.
0.559045 0.0560175 0.
0.561234 0.056236 0.
0.563357 0.0563379 0.
0.565482 0.0564409 0.
0.567586 0.0565323 0.
0.569667 0.0566153 0.
0.571749 0.0566993 0.
0.573796 0.0567507 0.
0.575836 0.0567946 0.
0.577874 0.0568367 0.
0.579895 0.0568529 0.
0.581916 0.0568692 0.
0.583935 0.0568842 0.
0.585949 0.0568965 0.
0.587962 0.0569089 0.
0.589973 0.0569182 0.
0.59198 0.0569249 0.
0.593987 0.0569316 0.
0.595992 0.0569347 0.
0.597997 0.0569369 0.
0.600001 0.0569391 0.
0.602007 0.0569356 0.
0.604012 0.0569321 0.
0.606019 0.0569273 0.
0.608028 0.0569184 0.
0.610038 0.0569095 0.
0.612051 0.0568971 0.
0.614069 0.0568808 0.
0.616087 0.0568645 0.
0.618111 0.056846 0.
0.620137 0.0568264 0.
0.622164 0.0568068 0.
0.624217 0.0567511 0.
0.62627 0.0566938 0.
0.628334 0.0566261 0.
0.630436 0.0565192 0.
0.632536 0.0564132 0.
0.63466 0.0563039 0.
0.6368 0.0561884 0.
0.638938 0.0560741 0.
0.641199 0.0557634 0.
0.64346 0.0554489 0.
0.645765 0.0551449 0.
0.648153 0.0547524 0.
0.65057 0.0543289 0.
0.653178 0.0536031 0.
0.655767 0.0529052 0.
0.658507 0.0521104 0.
0.661265 0.0512654 0.
0.664133 0.0502455 0.
0.667042 0.0490947 0.
0.670049 0.0477065 0.
0.673087 0.0462741 0.
0.676189 0.0446581 0.
0.67931 0.0429451 0.
0.682523 0.0411918 0.
0.685839 0.0394018 0.
0.689263 0.0374036 0.
0.692781 0.0351986 0.
0.696415 0.0329427 0.
0.700173 0.0307271 0.
0.704025 0.0285045 0.
0.707957 0.0262075 0.
0.71198 0.0239162 0.
0.716045 0.0217632 0.
0.720201 0.0198391 0.
0.724414 0.0182414 0.
0.728547 0.0170721 0.
0.732569 0.0163768 0.
0.736429 0.0164186 0.
0.462244 0.0174635 0.
0.466013 0.0174863 0.
0.469924 0.0182149 0.
0.473925 0.0193647 0.
0.477977 0.0208859 0.
0.482022 0.0227724 0.
0.48603 0.0248737 0.
0.489948 0.0270461 0.
0.493748 0.0292694 0.
0.497485 0.031541 0.
0.50113 0.0338251 0.
0.504706 0.0360212 0.
0.508196 0.0380696 0.
0.511613 0.0399928 0.
0.51493 0.0419451 0.
0.51813 0.0438607 0.
0.521294 0.0457065 0.
0.524379 0.0473299 0.
0.527425 0.048838 0.
0.530382 0.0501357 0.
0.533284 0.0513572 0.
0.536125 0.0525055 0.
0.538935 0.0535143 0.
0.541667 0.054389 0.
0.544359 0.0551497 0.
0.546907 0.0557527 0.
0.549464 0.056359 0.
0.551889 0.0568006 0.
0.554313 0.0572635 0.
0.556618 0.0575812 0.
0.558847 0.0578491 0.
0.561073 0.0581091 0.
0.563223 0.0582237 0.
0.565376 0.0583393 0.
0.567503 0.0584452 0.
0.569598 0.0585439 0.
0.571695 0.0586436 0.
0.573753 0.0587065 0.
0.575801 0.0587602 0.
0.577849 0.0588118 0.
0.579874 0.0588306 0.
0.581898 0.0588493 0.
0.583921 0.0588669 0.
0.585937 0.058882 0.
0.587954 0.0588972 0.
0.589966 0.0589084 0.
0.591975 0.0589165 0.
0.593983 0.0589245 0.
0.59599 0.0589282 0.
0.597995 0.0589307 0.
0.600001 0.0589331 0.
0.602008 0.0589288 0.
0.604015 0.0589244 0.
0.606023 0.0589186 0.
0.608035 0.0589078 0.
0.610047 0.058897 0.
0.612063 0.058882 0.
0.614085 0.0588622 0.
0.616106 0.0588424 0.
0.618134 0.0588211 0.
0.620164 0.0587989 0.
0.622195 0.0587767 0.
0.624262 0.0587068 0.
0.626329 0.0586353 0.
0.628407 0.0585523 0.
0.630523 0.0584298 0.
0.632638 0.0583085 0.
0.634788 0.0581814 0.
0.63696 0.0580482 0.
0.639134 0.057909 0.
0.641435 0.0575434 0.
0.643732 0.0571786 0.
0.646101 0.0568103 0.
0.648535 0.056354 0.
0.650989 0.0558597 0.
0.653593 0.0551151 0.
0.656225 0.0543779 0.
0.659011 0.0534836 0.
0.661805 0.0525435 0.
0.664698 0.0514252 0.
0.667606 0.0502261 0.
0.670616 0.0487996 0.
0.673655 0.0473179 0.
0.676733 0.0456633 0.
0.679845 0.043942 0.
0.683041 0.0421641 0.
0.686322 0.0403321 0.
0.689699 0.0383248 0.
0.693183 0.0360949 0.
0.696757 0.0338505 0.
0.700456 0.031653 0.
0.704246 0.0294481 0.
0.708088 0.0271871 0.
0.712023 0.0249376 0.
0.715995 0.0228306 0.
0.720006 0.0209609 0.
0.724079 0.019406 0.
0.728071 0.018255 0.
0.73194 0.017587 0.
0.735666 0.017542 0.
0.46302 0.018625 0.
0.466659 0.0187294 0.
0.470434 0.0194415 0.
0.474309 0.0205652 0.
0.478231 0.0220599 0.
0.482164 0.0239051 0.
0.486061 0.0259621 0.
0.48986 0.0280896 0.
0.49359 0.0302824 0.
0.497252 0.0325199 0.
0.500841 0.0347886 0.
0.504356 0.0369766 0.
0.50779 0.0390196 0.
0.511163 0.0409514 0.
0.514435 0.0428957 0.
0.517623 0.0448306 0.
0.52076 0.0467015 0.
0.52382 0.0483695 0.
0.526859 0.0499338 0.
0.529804 0.0512708 0.
0.532718 0.05256 0.
0.535575 0.0537456 0.
0.53842 0.0548292 0.
0.541151 0.055748 0.
0.543873 0.0565912 0.
0.546485 0.0572456 0.
0.549105 0.0578963 0.
0.551578 0.0584247 0.
0.554029 0.0589743 0.
0.556384 0.059372 0.
0.558647 0.0596767 0.
0.560909 0.0599763 0.
0.563087 0.0601025 0.
0.565266 0.0602303 0.
0.567417 0.0603518 0.
0.569524 0.060465 0.
0.571632 0.0605792 0.
0.573702 0.0606551 0.
0.575762 0.0607206 0.
0.577821 0.0607843 0.
0.579849 0.0608054 0.
0.581877 0.0608266 0.
0.583903 0.0608467 0.
0.585923 0.060865 0.
0.587942 0.0608832 0.
0.589957 0.0608968 0.
0.591968 0.0609065 0.
0.593979 0.0609162 0.
0.595987 0.0609204 0.
0.597994 0.0609232 0.
0.600001 0.0609259 0.
0.60201 0.0609205 0.
0.604019 0.0609152 0.
0.606029 0.060908 0.
0.608044 0.060895 0.
0.610058 0.0608819 0.
0.612078 0.060864 0.
0.614103 0.0608407 0.
0.616129 0.0608174 0.
0.618161 0.0607924 0.
0.620196 0.0607666 0.
0.622232 0.0607409 0.
0.624313 0.0606548 0.
0.626394 0.0605678 0.
0.628486 0.0604693 0.
0.630615 0.0603334 0.
0.632742 0.0601986 0.
0.634919 0.0600528 0.
0.63712 0.0599041 0.
0.639334 0.059737 0.
0.641673 0.0593179 0.
0.644006 0.0589027 0.
0.646449 0.0584642 0.
0.64894 0.0579394 0.
0.651461 0.0573352 0.
0.654091 0.0565181 0.
0.656752 0.0557236 0.
0.659532 0.0548106 0.
0.662347 0.0537925 0.
0.665256 0.0525962 0.
0.668177 0.0513266 0.
0.671167 0.0498829 0.
0.674199 0.048369 0.
0.677268 0.0466808 0.
0.680355 0.0449443 0.
0.683521 0.0431608 0.
0.686772 0.0412918 0.
0.690099 0.0392744 0.
0.693532 0.0370357 0.
0.697051 0.0348024 0.
0.700682 0.0326312 0.
0.7044 0.0304489 0.
0.708168 0.0282201 0.
0.712006 0.026018 0.
0.715884 0.023954 0.
0.719778 0.0221288 0.
0.723693 0.0206159 0.
0.727555 0.0194856 0.
0.731296 0.0188296 0.
0.734895 0.0187265 0.
0.463793 0.0198393 0.
0.46731 0.0200045 0.
0.470958 0.0206973 0.
0.474701 0.0217984 0.
0.478513 0.023276 0.
0.482338 0.0250876 0.
0.486116 0.0270951 0.
0.489821 0.0291837 0.
0.493477 0.0313439 0.
0.497067 0.0335501 0.
0.500598 0.0358018 0.
0.504043 0.0379721 0.
0.507434 0.0400142 0.
0.51075 0.041948 0.
0.513987 0.0438822 0.
0.517152 0.0458314 0.
0.520245 0.0477182 0.
0.523292 0.0494262 0.
0.526303 0.0510099 0.
0.529241 0.0524054 0.
0.532159 0.0537547 0.
0.535029 0.054965 0.
0.537863 0.056084 0.
0.540624 0.0570818 0.
0.543383 0.0580173 0.
0.546062 0.0587357 0.
0.54874 0.0594196 0.
0.551255 0.060011 0.
0.553709 0.0606196 0.
0.55611 0.0610914 0.
0.558412 0.0614273 0.
0.560725 0.0617627 0.
0.562935 0.0619269 0.
0.565142 0.0620899 0.
0.567317 0.0622418 0.
0.569435 0.0623695 0.
0.571554 0.0624984 0.
0.573639 0.0625909 0.
0.575714 0.0626728 0.
0.577788 0.0627531 0.
0.57982 0.0627766 0.
0.581852 0.0628 0.
0.583882 0.0628229 0.
0.585905 0.0628447 0.
0.587928 0.0628666 0.
0.589946 0.062883 0.
0.59196 0.0628946 0.
0.593973 0.0629063 0.
0.595984 0.0629112 0.
0.597993 0.0629142 0.
0.600002 0.0629172 0.
0.602013 0.0629106 0.
0.604024 0.062904 0.
0.606037 0.0628952 0.
0.608055 0.0628794 0.
0.610073 0.0628636 0.
0.612097 0.0628426 0.
0.614126 0.0628156 0.
0.616155 0.0627887 0.
0.618194 0.0627587 0.
0.620236 0.0627274 0.
0.622278 0.0626958 0.
0.624375 0.0625894 0.
0.626472 0.0624825 0.
0.628581 0.0623653 0.
0.630723 0.0622162 0.
0.632862 0.0620683 0.
0.635087 0.0618736 0.
0.637339 0.0616689 0.
0.639602 0.0614471 0.
0.641967 0.0610112 0.
0.644319 0.0605749 0.
0.646816 0.0600801 0.
0.64935 0.0595064 0.
0.65193 0.0587945 0.
0.654585 0.0579104 0.
0.657289 0.0570364 0.
0.660079 0.0560688 0.
0.662906 0.0549979 0.
0.665806 0.0537637 0.
0.668732 0.0524361 0.
0.671705 0.0509653 0.
0.674713 0.0494238 0.
0.677761 0.0477248 0.
0.680842 0.0459684 0.
0.683972 0.0441825 0.
0.687186 0.0422862 0.
0.690464 0.0402556 0.
0.693838 0.0380245 0.
0.697306 0.0358004 0.
0.700866 0.0336545 0.
0.704508 0.0315006 0.
0.708202 0.0293094 0.
0.711945 0.0271487 0.
0.715729 0.025127 0.
0.719523 0.023341 0.
0.723305 0.0218596 0.
0.727034 0.0207558 0.
0.730659 0.0201018 0.
0.734142 0.0199618 0.
0.464567 0.0211002 0.
0.467971 0.0213013 0.
0.471506 0.021984 0.
0.475144 0.0230777 0.
0.47885 0.0245461 0.
0.48256 0.0263225 0.
0.486231 0.0282877 0.
0.489858 0.0303462 0.
0.493429 0.0324676 0.
0.496953 0.0346489 0.
0.500416 0.0368745 0.
0.503796 0.0390264 0.
0.507137 0.041062 0.
0.510391 0.0429905 0.
0.513587 0.0449142 0.
0.51671 0.0468666 0.
0.519771 0.0487603 0.
0.522784 0.0504935 0.
0.525768 0.0520963 0.
0.528706 0.0535436 0.
0.531615 0.054923 0.
0.534476 0.0561551 0.
0.53731 0.0573271 0.
0.540094 0.0583986 0.
0.542878 0.0594033 0.
0.545587 0.0601675 0.
0.548266 0.060884 0.
0.550829 0.0615454 0.
0.553333 0.0622205 0.
0.55581 0.0627869 0.
0.558165 0.0631655 0.
0.560534 0.0635455 0.
0.562782 0.0637478 0.
0.565015 0.0639465 0.
0.567217 0.0641312 0.
0.569345 0.0642735 0.
0.571475 0.0644171 0.
0.573575 0.0645262 0.
0.575665 0.0646246 0.
0.577756 0.0647218 0.
0.579791 0.0647477 0.
0.581827 0.0647735 0.
0.58386 0.064799 0.
0.585887 0.0648245 0.
0.587914 0.06485 0.
0.589935 0.0648691 0.
0.591951 0.0648828 0.
0.593968 0.0648964 0.
0.59598 0.064902 0.
0.597991 0.0649053 0.
0.600002 0.0649086 0.
0.602016 0.0649006 0.
0.604029 0.0648927 0.
0.606045 0.0648823 0.
0.608066 0.0648638 0.
0.610088 0.0648454 0.
0.612115 0.0648211 0.
0.614148 0.0647905 0.
0.616182 0.0647599 0.
0.618226 0.0647248 0.
0.620275 0.0646881 0.
0.622325 0.06465 0.
0.624439 0.0645233 0.
0.626552 0.0643963 0.
0.628677 0.0642607 0.
0.630831 0.0640985 0.
0.632983 0.0639375 0.
0.635261 0.0636883 0.
0.637566 0.0634252 0.
0.639887 0.0631451 0.
0.642294 0.0626767 0.
0.644693 0.0622072 0.
0.647251 0.0616225 0.
0.649814 0.0609866 0.
0.65243 0.060197 0.
0.655091 0.0592764 0.
0.657828 0.0583367 0.
0.660626 0.0573199 0.
0.663466 0.0561761 0.
0.666356 0.0549141 0.
0.669269 0.0535541 0.
0.672216 0.0520658 0.
0.675202 0.0504918 0.
0.678223 0.0487915 0.
0.681283 0.047023 0.
0.684384 0.0452305 0.
0.68756 0.0433233 0.
0.69078 0.0412831 0.
0.694091 0.0390711 0.
0.697491 0.0368603 0.
0.700986 0.034736 0.
0.704553 0.0326155 0.
0.708164 0.0304651 0.
0.711824 0.028344 0.
0.71551 0.0263603 0.
0.719211 0.0246028 0.
0.722884 0.0231463 0.
0.726493 0.0220614 0.
0.730008 0.0214038 0.
0.733388 0.0212298 0.
0.465355 0.0223978 0.
0.468672 0.022629 0.
0.472118 0.02332 0.
0.475658 0.0244156 0.
0.479256 0.0258772 0.
0.482855 0.0276225 0.
0.486433 0.0295572 0.
0.48997 0.0315803 0.
0.493462 0.0336653 0.
0.496917 0.0358219 0.
0.500298 0.0380129 0.
0.503619 0.0401454 0.
0.506891 0.0421634 0.
0.510083 0.0440816 0.
0.513233 0.0459938 0.
0.51631 0.0479376 0.
0.519328 0.0498292 0.
0.52231 0.0515864 0.
0.525274 0.0532004 0.
0.528191 0.0546811 0.
0.531079 0.0560767 0.
0.533933 0.0573501 0.
0.536765 0.0585613 0.
0.539557 0.0596734 0.
0.542339 0.0606896 0.
0.545069 0.0615344 0.
0.547764 0.0623238 0.
0.550388 0.0630657 0.
0.552938 0.063805 0.
0.55549 0.0644728 0.
0.557892 0.0648845 0.
0.560292 0.0652892 0.
0.562576 0.0655328 0.
0.564836 0.0657726 0.
0.56707 0.0659982 0.
0.569212 0.0661482 0.
0.571356 0.0662988 0.
0.573474 0.0664248 0.
0.57558 0.066544 0.
0.577688 0.0666631 0.
0.579737 0.0666983 0.
0.581785 0.0667328 0.
0.583828 0.0667656 0.
0.585859 0.0667945 0.
0.58789 0.0668234 0.
0.589916 0.0668456 0.
0.591937 0.066862 0.
0.593957 0.0668784 0.
0.595974 0.0668851 0.
0.597989 0.0668889 0.
0.600004 0.0668927 0.
0.602022 0.0668826 0.
0.60404 0.0668725 0.
0.60606 0.0668597 0.
0.608087 0.0668378 0.
0.610113 0.0668159 0.
0.612146 0.066788 0.
0.614184 0.0667535 0.
0.616223 0.0667192 0.
0.618281 0.0666736 0.
0.620345 0.0666247 0.
0.622412 0.0665726 0.
0.624543 0.0664233 0.
0.626672 0.0662747 0.
0.628816 0.0661225 0.
0.630987 0.0659533 0.
0.633153 0.0657852 0.
0.635476 0.065473 0.
0.637824 0.0651534 0.
0.640194 0.064825 0.
0.642638 0.0643328 0.
0.645091 0.0638245 0.
0.647698 0.0631475 0.
0.650294 0.0624353 0.
0.652956 0.0615535 0.
0.655627 0.060599 0.
0.658372 0.0596164 0.
0.661165 0.0585646 0.
0.66401 0.0573584 0.
0.666885 0.0560681 0.
0.66979 0.0546784 0.
0.672708 0.0531818 0.
0.675662 0.0515845 0.
0.67865 0.0498852 0.
0.68168 0.048112 0.
0.684749 0.0463126 0.
0.687882 0.0444074 0.
0.691059 0.0423591 0.
0.694293 0.0401747 0.
0.69762 0.037986 0.
0.701037 0.0358869 0.
0.704526 0.0337998 0.
0.708047 0.0316912 0.
0.71162 0.0296172 0.
0.715211 0.027661 0.
0.718815 0.0259291 0.
0.722396 0.0244883 0.
0.725902 0.0234062 0.
0.729318 0.0227373 0.
0.732609 0.0225288 0.
0.466181 0.0237354 0.
0.469421 0.0239963 0.
0.472786 0.0247084 0.
0.476229 0.0258085 0.
0.479722 0.0272627 0.
0.483223 0.0289907 0.
0.486707 0.030897 0.
0.490151 0.0328809 0.
0.49357 0.034938 0.
0.49694 0.0370613 0.
0.50024 0.0392185 0.
0.503497 0.0413255 0.
0.50669 0.0433191 0.
0.50982 0.0452212 0.
0.512913 0.0471135 0.
0.515936 0.0490415 0.
0.518919 0.0509325 0.
0.52187 0.0527027 0.
0.524797 0.054323 0.
0.527693 0.0558319 0.
0.530561 0.0572423 0.
0.533407 0.0585492 0.
0.536223 0.0597783 0.
0.539022 0.0609163 0.
0.5418 0.0619635 0.
0.544548 0.0628842 0.
0.547256 0.0637364 0.
0.549924 0.0645537 0.
0.552488 0.0653107 0.
0.555051 0.0660118 0.
0.557492 0.0664824 0.
0.559946 0.066956 0.
0.562298 0.0672704 0.
0.564605 0.0675679 0.
0.566893 0.0678517 0.
0.569057 0.0680097 0.
0.571223 0.0681686 0.
0.573363 0.0683133 0.
0.575488 0.0684562 0.
0.577614 0.0685995 0.
0.579678 0.0686463 0.
0.58174 0.0686904 0.
0.583795 0.0687315 0.
0.585831 0.0687638 0.
0.587866 0.0687961 0.
0.589896 0.0688216 0.
0.591922 0.0688408 0.
0.593947 0.0688601 0.
0.595968 0.0688679 0.
0.597987 0.0688722 0.
0.600006 0.0688765 0.
0.602028 0.0688642 0.
0.604051 0.0688519 0.
0.606075 0.0688365 0.
0.608107 0.068811 0.
0.61014 0.0687856 0.
0.612178 0.0687539 0.
0.614221 0.0687155 0.
0.616265 0.0686772 0.
0.618339 0.0686197 0.
0.62042 0.0685572 0.
0.622506 0.0684886 0.
0.624658 0.0683138 0.
0.626808 0.0681401 0.
0.628979 0.067969 0.
0.631177 0.0677905 0.
0.633371 0.0676128 0.
0.635742 0.0672113 0.
0.638123 0.0668131 0.
0.640555 0.0664169 0.
0.643043 0.0658976 0.
0.645541 0.065352 0.
0.648157 0.0646341 0.
0.650789 0.0638509 0.
0.653487 0.0629003 0.
0.65618 0.0619066 0.
0.658933 0.060875 0.
0.661705 0.0597965 0.
0.664539 0.0585464 0.
0.667396 0.0572319 0.
0.670281 0.0558221 0.
0.67318 0.0543163 0.
0.676102 0.0527036 0.
0.67905 0.0510056 0.
0.682041 0.049237 0.
0.685074 0.0474342 0.
0.688157 0.0455358 0.
0.691286 0.0434912 0.
0.69446 0.0413323 0.
0.697699 0.039178 0.
0.701028 0.0371035 0.
0.704427 0.0350567 0.
0.707865 0.0329886 0.
0.711339 0.0309572 0.
0.714841 0.0290302 0.
0.718348 0.0273129 0.
0.721837 0.0258844 0.
0.725258 0.0247967 0.
0.728585 0.024109 0.
0.731795 0.023858 0.
0.467017 0.0251154 0.
0.470178 0.0254022 0.
0.47346 0.0261355 0.
0.476811 0.0272391 0.
0.480211 0.0286906 0.
0.483622 0.0304081 0.
0.48701 0.0322803 0.
0.490378 0.0342363 0.
0.493722 0.0362659 0.
0.496999 0.0383529 0.
0.500227 0.0404801 0.
0.503401 0.0425525 0.
0.506514 0.0445188 0.
0.509583 0.046399 0.
0.512612 0.0482685 0.
0.51559 0.0501804 0.
0.518535 0.0520633 0.
0.521443 0.053839 0.
0.524339 0.055468 0.
0.527215 0.0569953 0.
0.530058 0.0584172 0.
0.532891 0.0597471 0.
0.535701 0.0609922 0.
0.538495 0.0621641 0.
0.541265 0.0632318 0.
0.544017 0.0642079 0.
0.546719 0.0651016 0.
0.549389 0.0659421 0.
0.551977 0.066737 0.
0.554571 0.0674981 0.
0.557078 0.0680655 0.
0.559589 0.0686098 0.
0.562014 0.0689997 0.
0.564369 0.0693554 0.
0.566716 0.069704 0.
0.568901 0.069869 0.
0.571088 0.0700333 0.
0.57325 0.0701944 0.
0.575392 0.0703592 0.
0.577536 0.0705246 0.
0.579615 0.0705855 0.
0.58169 0.0706419 0.
0.583757 0.0706939 0.
0.585798 0.0707294 0.
0.587838 0.0707649 0.
0.589874 0.0707935 0.
0.591904 0.0708157 0.
0.593935 0.0708379 0.
0.59596 0.0708469 0.
0.597985 0.0708517 0.
0.600009 0.0708564 0.
0.602036 0.0708419 0.
0.604064 0.0708273 0.
0.606094 0.0708092 0.
0.608132 0.07078 0.
0.61017 0.070751 0.
0.612214 0.0707155 0.
0.614264 0.0706734 0.
0.616314 0.0706313 0.
0.618402 0.0705589 0.
0.6205 0.07048 0.
0.622605 0.0703926 0.
0.624776 0.0701958 0.
0.626943 0.0700002 0.
0.629143 0.0698129 0.
0.631369 0.0696261 0.
0.633597 0.0694286 0.
0.636011 0.0689376 0.
0.638426 0.0684606 0.
0.64093 0.0679999 0.
0.643481 0.0674351 0.
0.646047 0.0668058 0.
0.648679 0.0660254 0.
0.651317 0.0652029 0.
0.654023 0.0642364 0.
0.656737 0.063203 0.
0.65949 0.0621272 0.
0.662254 0.0610038 0.
0.665059 0.0597392 0.
0.667894 0.0584077 0.
0.670756 0.0569813 0.
0.673624 0.0554678 0.
0.676522 0.0538489 0.
0.679436 0.0521524 0.
0.682377 0.0503914 0.
0.685366 0.0485919 0.
0.688401 0.0467046 0.
0.691474 0.0446732 0.
0.694591 0.0425397 0.
0.697752 0.0404221 0.
0.700985 0.0383756 0.
0.704293 0.0363682 0.
0.70764 0.034342 0.
0.711023 0.0323484 0.
0.714433 0.0304469 0.
0.717856 0.0287401 0.
0.721256 0.0273162 0.
0.724593 0.0262261 0.
0.727841 0.0255287 0.
0.73098 0.0252328 0.
0.467824 0.026522 0.
0.470909 0.026835 0.
0.474112 0.0275867 0.
0.477382 0.0287002 0.
0.480703 0.0301514 0.
0.484029 0.0318586 0.
0.48734 0.033706 0.
0.490636 0.0356403 0.
0.493888 0.0376351 0.
0.497082 0.0396927 0.
0.500227 0.0417862 0.
0.503318 0.043823 0.
0.506358 0.0457613 0.
0.509363 0.0476159 0.
0.512335 0.0494651 0.
0.515268 0.0513549 0.
0.518165 0.0532241 0.
0.521038 0.0550009 0.
0.523907 0.0566346 0.
0.526751 0.0581735 0.
0.529576 0.0596073 0.
0.532396 0.0609499 0.
0.535186 0.0622117 0.
0.537964 0.0634088 0.
0.540726 0.0644962 0.
0.543468 0.0655 0.
0.546162 0.0664295 0.
0.548843 0.0673132 0.
0.551465 0.0681545 0.
0.554086 0.0689653 0.
0.556647 0.0696182 0.
0.559189 0.0702055 0.
0.561664 0.0706585 0.
0.564046 0.0710519 0.
0.566431 0.071446 0.
0.568671 0.0716477 0.
0.570918 0.071853 0.
0.573126 0.0720506 0.
0.575285 0.0722378 0.
0.577446 0.0724258 0.
0.579542 0.0725075 0.
0.581631 0.0725828 0.
0.583711 0.0726507 0.
0.585758 0.0726895 0.
0.587805 0.0727283 0.
0.589847 0.0727601 0.
0.591883 0.0727854 0.
0.59392 0.0728108 0.
0.595952 0.0728209 0.
0.597982 0.0728262 0.
0.600013 0.0728315 0.
0.602046 0.0728145 0.
0.60408 0.0727975 0.
0.606116 0.0727765 0.
0.608161 0.0727432 0.
0.610205 0.0727099 0.
0.612257 0.0726704 0.
0.614315 0.0726245 0.
0.616373 0.0725786 0.
0.618477 0.072484 0.
0.620589 0.0723802 0.
0.622712 0.0722661 0.
0.624904 0.0720478 0.
0.627092 0.0718308 0.
0.629341 0.0716032 0.
0.631624 0.0713752 0.
0.633915 0.0711238 0.
0.63635 0.0705916 0.
0.63877 0.0700661 0.
0.641331 0.0695592 0.
0.643932 0.0689597 0.
0.646555 0.0682432 0.
0.649206 0.0674005 0.
0.651872 0.0665115 0.
0.654574 0.065529 0.
0.65729 0.0644846 0.
0.660041 0.0633776 0.
0.662801 0.0622139 0.
0.665581 0.0609344 0.
0.668381 0.0595933 0.
0.671215 0.0581602 0.
0.674057 0.0566382 0.
0.676918 0.0550189 0.
0.679802 0.0533295 0.
0.6827 0.0515775 0.
0.685636 0.0497871 0.
0.688618 0.0479159 0.
0.69163 0.0459036 0.
0.69469 0.0437972 0.
0.697783 0.0417139 0.
0.700925 0.0396982 0.
0.704138 0.0377255 0.
0.707398 0.0357417 0.
0.710691 0.0337808 0.
0.714012 0.0319019 0.
0.71735 0.0302031 0.
0.720676 0.0287759 0.
0.72394 0.0276801 0.
0.727112 0.0269788 0.
0.730184 0.0266502 0.
0.468613 0.0279527 0.
0.471637 0.0283014 0.
0.474773 0.0290728 0.
0.477975 0.0302017 0.
0.481223 0.0316554 0.
0.484475 0.03336 0.
0.487714 0.0351872 0.
0.490924 0.0370947 0.
0.494085 0.0390628 0.
0.497198 0.0410949 0.
0.50026 0.0431482 0.
0.503268 0.0451512 0.
0.506237 0.047057 0.
0.509179 0.0488854 0.
0.51209 0.0507098 0.
0.514971 0.0525704 0.
0.517822 0.0544217 0.
0.520664 0.056191 0.
0.52349 0.0578233 0.
0.52631 0.0593696 0.
0.529112 0.060811 0.
0.5319 0.0621605 0.
0.534672 0.0634351 0.
0.537434 0.0646509 0.
0.540179 0.0657517 0.
0.542912 0.0667801 0.
0.545605 0.067748 0.
0.54829 0.068667 0.
0.550934 0.0695373 0.
0.553564 0.0703668 0.
0.556153 0.0710863 0.
0.558717 0.0717304 0.
0.56125 0.0722702 0.
0.563678 0.0727131 0.
0.566115 0.0731616 0.
0.568428 0.0734169 0.
0.570741 0.0736673 0.
0.573001 0.0739055 0.
0.575177 0.0741152 0.
0.577356 0.074326 0.
0.579468 0.0744288 0.
0.581571 0.0745229 0.
0.583665 0.0746075 0.
0.585718 0.0746495 0.
0.587772 0.0746916 0.
0.58982 0.0747267 0.
0.591862 0.0747551 0.
0.593905 0.0747836 0.
0.595943 0.0747949 0.
0.59798 0.0748008 0.
0.600017 0.0748065 0.
0.602056 0.0747871 0.
0.604096 0.0747678 0.
0.606139 0.0747437 0.
0.60819 0.0747062 0.
0.610241 0.0746688 0.
0.612301 0.0746252 0.
0.614367 0.0745755 0.
0.616433 0.0745258 0.
0.618552 0.0744079 0.
0.620679 0.0742792 0.
0.622822 0.0741384 0.
0.625034 0.0738983 0.
0.627242 0.0736599 0.
0.629551 0.073384 0.
0.631901 0.073103 0.
0.634274 0.0727767 0.
0.636762 0.0721953 0.
0.639236 0.0716241 0.
0.641834 0.0710513 0.
0.644441 0.0704179 0.
0.647086 0.0696358 0.
0.649747 0.0687514 0.
0.652427 0.0678145 0.
0.655126 0.0668114 0.
0.657839 0.0657407 0.
0.660579 0.0646214 0.
0.663334 0.0634313 0.
0.666096 0.0621407 0.
0.668868 0.0607902 0.
0.671663 0.059356 0.
0.674471 0.0578322 0.
0.677297 0.0562168 0.
0.680139 0.0545384 0.
0.682997 0.0528031 0.
0.685877 0.0510277 0.
0.6888 0.0491779 0.
0.691747 0.0471911 0.
0.694736 0.0451204 0.
0.697765 0.0430661 0.
0.700829 0.0410817 0.
0.703948 0.0391424 0.
0.707123 0.0371933 0.
0.710328 0.0352666 0.
0.713563 0.0334064 0.
0.716816 0.0317144 0.
0.720067 0.0302763 0.
0.72327 0.0291665 0.
0.726378 0.0284585 0.
0.729384 0.0281122 0.
0.469427 0.0294191 0.
0.472401 0.0298108 0.
0.475478 0.0306001 0.
0.478621 0.031752 0.
0.4818 0.0332212 0.
0.48498 0.0349246 0.
0.488137 0.0367297 0.
0.491255 0.0386158 0.
0.494327 0.0405608 0.
0.497354 0.0425564 0.
0.500328 0.0445743 0.
0.503255 0.046541 0.
0.506152 0.0484089 0.
0.509025 0.0502077 0.
0.511872 0.0520014 0.
0.514699 0.0538299 0.
0.517504 0.0556559 0.
0.520296 0.0574064 0.
0.523088 0.0590343 0.
0.525876 0.0605812 0.
0.528641 0.0620269 0.
0.531406 0.0633814 0.
0.53416 0.0646632 0.
0.536897 0.0658893 0.
0.539628 0.067008 0.
0.542356 0.068057 0.
0.54505 0.0690521 0.
0.547732 0.0699901 0.
0.550386 0.070885 0.
0.553027 0.0717403 0.
0.555647 0.0725312 0.
0.558232 0.0732357 0.
0.560815 0.0738673 0.
0.56329 0.0743603 0.
0.565772 0.0748506 0.
0.568149 0.0751534 0.
0.570511 0.075448 0.
0.572816 0.0757322 0.
0.575005 0.0759547 0.
0.5772 0.0761778 0.
0.579341 0.0763093 0.
0.581473 0.0764331 0.
0.583596 0.0765461 0.
0.585659 0.0765916 0.
0.587722 0.0766372 0.
0.58978 0.0766756 0.
0.591831 0.0767066 0.
0.593883 0.0767376 0.
0.59593 0.0767499 0.
0.597976 0.076756 0.
0.600023 0.076762 0.
0.602072 0.0767406 0.
0.604121 0.0767193 0.
0.606173 0.0766925 0.
0.608234 0.0766508 0.
0.610294 0.0766093 0.
0.612365 0.0765607 0.
0.614445 0.0765057 0.
0.616524 0.076451 0.
0.618669 0.0763016 0.
0.620819 0.0761427 0.
0.622991 0.0759721 0.
0.625224 0.0757167 0.
0.627448 0.0754642 0.
0.629807 0.0751372 0.
0.632207 0.0748096 0.
0.634658 0.0744124 0.
0.637196 0.0737872 0.
0.639729 0.0731671 0.
0.642354 0.07252 0.
0.644974 0.0718194 0.
0.647632 0.0709735 0.
0.650299 0.0700736 0.
0.652989 0.0691087 0.
0.655681 0.0680907 0.
0.658388 0.0669967 0.
0.661115 0.0658648 0.
0.663859 0.0646552 0.
0.666599 0.0633594 0.
0.669349 0.0620009 0.
0.672111 0.0605689 0.
0.674879 0.059047 0.
0.677664 0.0574413 0.
0.680461 0.0557803 0.
0.683272 0.0540658 0.
0.686098 0.0523122 0.
0.688952 0.050493 0.
0.69183 0.0485376 0.
0.694742 0.0465066 0.
0.697695 0.0444906 0.
0.700684 0.0425307 0.
0.703712 0.0406263 0.
0.706797 0.0387129 0.
0.709919 0.0368145 0.
0.713068 0.0349732 0.
0.716233 0.0332843 0.
0.719408 0.0318294 0.
0.722546 0.0306982 0.
0.725601 0.0299663 0.
0.728552 0.0296074 0.
0.470284 0.0309318 0.
0.473208 0.0313611 0.
0.476233 0.0321734 0.
0.479317 0.0333593 0.
0.482424 0.0348497 0.
0.485527 0.0365454 0.
0.488595 0.0383363 0.
0.491623 0.0402058 0.
0.494603 0.0421164 0.
0.497541 0.0440811 0.
0.500427 0.0460653 0.
0.503272 0.0479872 0.
0.506094 0.049816 0.
0.508893 0.051579 0.
0.511672 0.0533386 0.
0.51444 0.0551299 0.
0.517189 0.0569224 0.
0.519938 0.0586493 0.
0.52269 0.0602689 0.
0.52544 0.0618107 0.
0.528177 0.0632579 0.
0.530915 0.0646123 0.
0.533646 0.0659001 0.
0.536366 0.0671341 0.
0.539087 0.0682707 0.
0.541805 0.0693329 0.
0.544499 0.0703505 0.
0.547176 0.0713098 0.
0.549839 0.0722288 0.
0.552491 0.0731054 0.
0.555135 0.073947 0.
0.557742 0.074702 0.
0.560346 0.0753787 0.
0.562861 0.0759049 0.
0.565379 0.0764226 0.
0.567811 0.0768029 0.
0.570211 0.0771736 0.
0.57257 0.0775339 0.
0.574789 0.0777715 0.
0.577014 0.07801 0.
0.579194 0.0781746 0.
0.581362 0.0783341 0.
0.583522 0.0784811 0.
0.585596 0.0785307 0.
0.58767 0.0785804 0.
0.589738 0.0786224 0.
0.591799 0.0786561 0.
0.59386 0.07869 0.
0.595917 0.0787033 0.
0.597973 0.0787096 0.
0.600029 0.0787158 0.
0.602088 0.0786923 0.
0.604147 0.0786689 0.
0.606209 0.0786392 0.
0.60828 0.078593 0.
0.61035 0.0785469 0.
0.612435 0.0784926 0.
0.614529 0.0784314 0.
0.616623 0.0783704 0.
0.618802 0.0781833 0.
0.620984 0.0779883 0.
0.623199 0.0777821 0.
0.625474 0.0775048 0.
0.62774 0.0772307 0.
0.630166 0.0768137 0.
0.632607 0.0764071 0.
0.635102 0.0759334 0.
0.637655 0.0753021 0.
0.640225 0.074664 0.
0.64287 0.0739651 0.
0.64551 0.0731939 0.
0.648179 0.0723041 0.
0.650852 0.0713829 0.
0.653543 0.0704017 0.
0.656235 0.0693685 0.
0.658935 0.0682561 0.
0.661647 0.0671144 0.
0.664373 0.0658912 0.
0.667098 0.064591 0.
0.669821 0.0632281 0.
0.672554 0.0617996 0.
0.675286 0.0602844 0.
0.678027 0.0586931 0.
0.680774 0.0570545 0.
0.683533 0.0553654 0.
0.686306 0.053637 0.
0.689091 0.0518531 0.
0.691892 0.0499403 0.
0.694721 0.0479514 0.
0.697585 0.0459807 0.
0.700494 0.0440512 0.
0.703437 0.0421718 0.
0.706431 0.0402972 0.
0.709465 0.038426 0.
0.712529 0.0366028 0.
0.715615 0.0349096 0.
0.718713 0.0334328 0.
0.721782 0.0322798 0.
0.724782 0.0315077 0.
0.727686 0.0311269 0.
0.471158 0.0324803 0.
0.474033 0.0329428 0.
0.477004 0.0337917 0.
0.480021 0.0350133 0.
0.483053 0.0365177 0.
0.486078 0.0382096 0.
0.48906 0.039997 0.
0.491996 0.0418376 0.
0.494891 0.0437218 0.
0.497736 0.0456612 0.
0.500528 0.047599 0.
0.503294 0.0494762 0.
0.506038 0.0512641 0.
0.508761 0.0529887 0.
0.511473 0.0547125 0.
0.514179 0.0564624 0.
0.516878 0.0582162 0.
0.519581 0.0599166 0.
0.522298 0.0615267 0.
0.525014 0.0630583 0.
0.527719 0.0645053 0.
0.530432 0.0658581 0.
0.533145 0.0671486 0.
0.535847 0.068386 0.
0.538554 0.0695374 0.
0.541265 0.0706126 0.
0.543956 0.0716497 0.
0.546629 0.0726266 0.
0.549295 0.0735633 0.
0.551958 0.0744598 0.
0.554613 0.0753191 0.
0.55723 0.076104 0.
0.559851 0.0768272 0.
0.562414 0.0774217 0.
0.564976 0.0779846 0.
0.567468 0.0784373 0.
0.569905 0.0788846 0.
0.572322 0.0793336 0.
0.574571 0.0795854 0.
0.576827 0.0798372 0.
0.579045 0.0800305 0.
0.581248 0.080225 0.
0.583443 0.0804103 0.
0.585529 0.0804639 0.
0.587616 0.0805176 0.
0.589695 0.0805631 0.
0.591765 0.0805994 0.
0.593836 0.0806357 0.
0.595903 0.0806497 0.
0.59797 0.0806561 0.
0.600036 0.0806622 0.
0.602106 0.080637 0.
0.604175 0.0806118 0.
0.606247 0.0805794 0.
0.608327 0.0805292 0.
0.610407 0.0804791 0.
0.612507 0.080418 0.
0.614617 0.0803493 0.
0.616727 0.0802804 0.
0.618939 0.080056 0.
0.62115 0.0798276 0.
0.623411 0.0795875 0.
0.62573 0.0792891 0.
0.628044 0.0789872 0.
0.630534 0.0784731 0.
0.633019 0.0779848 0.
0.635567 0.077427 0.
0.638148 0.0767565 0.
0.640747 0.0760742 0.
0.643389 0.0753582 0.
0.646034 0.0745489 0.
0.648711 0.0736327 0.
0.651395 0.0726903 0.
0.654086 0.0716913 0.
0.656773 0.0706409 0.
0.659471 0.0695192 0.
0.662177 0.0683669 0.
0.664881 0.0671361 0.
0.667582 0.0658359 0.
0.670288 0.0644735 0.
0.672991 0.06305 0.
0.675688 0.0615443 0.
0.67839 0.0599715 0.
0.68109 0.0583554 0.
0.683792 0.0566965 0.
0.686507 0.0549959 0.
0.68923 0.0532475 0.
0.691958 0.0513828 0.
0.694705 0.0494405 0.
0.697476 0.0475123 0.
0.700293 0.0456247 0.
0.703147 0.043772 0.
0.70605 0.0419283 0.
0.709 0.0400834 0.
0.711983 0.0382777 0.
0.714988 0.0365827 0.
0.718014 0.0350794 0.
0.721013 0.0338994 0.
0.723955 0.033087 0.
0.726813 0.0326683 0.
0.472026 0.0340644 0.
0.47485 0.0345603 0.
0.477758 0.0354535 0.
0.480707 0.0366974 0.
0.483672 0.0382217 0.
0.486616 0.0399192 0.
0.489509 0.0416923 0.
0.49236 0.0435095 0.
0.495163 0.0453776 0.
0.497909 0.0472772 0.
0.500617 0.0491713 0.
0.503304 0.0510052 0.
0.505967 0.0527467 0.
0.508619 0.0544353 0.
0.511263 0.0561217 0.
0.51391 0.0578226 0.
0.516562 0.0595377 0.
0.519227 0.061212 0.
0.521908 0.0628075 0.
0.524589 0.0643257 0.
0.527265 0.0657695 0.
0.529955 0.0671167 0.
0.532645 0.0684062 0.
0.535335 0.0696469 0.
0.538035 0.07081 0.
0.540735 0.071897 0.
0.543421 0.0729486 0.
0.546093 0.073943 0.
0.54876 0.074894 0.
0.551426 0.0757966 0.
0.554084 0.0766719 0.
0.556716 0.0774945 0.
0.559354 0.0782617 0.
0.56196 0.0789216 0.
0.564558 0.0795195 0.
0.567099 0.0800285 0.
0.569555 0.0805301 0.
0.572011 0.0810428 0.
0.574314 0.0813151 0.
0.576632 0.0815899 0.
0.578898 0.0818318 0.
0.581127 0.0820812 0.
0.583353 0.0823243 0.
0.585454 0.0823834 0.
0.587555 0.0824427 0.
0.589649 0.0824927 0.
0.591729 0.0825314 0.
0.59381 0.0825701 0.
0.595888 0.0825847 0.
0.597966 0.0825907 0.
0.600044 0.0825964 0.
0.602126 0.0825695 0.
0.604207 0.0825427 0.
0.60629 0.0825078 0.
0.608379 0.0824539 0.
0.610467 0.0824 0.
0.612585 0.0823264 0.
0.614716 0.082242 0.
0.616853 0.0821519 0.
0.619117 0.081869 0.
0.621372 0.0815879 0.
0.623687 0.0813017 0.
0.626051 0.0809817 0.
0.62842 0.0806431 0.
0.630927 0.0800798 0.
0.633442 0.0795335 0.
0.636037 0.0789041 0.
0.638645 0.0781989 0.
0.641271 0.0774737 0.
0.643921 0.0767269 0.
0.646571 0.0758796 0.
0.649241 0.0749522 0.
0.651924 0.0739988 0.
0.654613 0.0729861 0.
0.657299 0.0719174 0.
0.659991 0.0707879 0.
0.66269 0.0696267 0.
0.665387 0.0683929 0.
0.668068 0.0670942 0.
0.670748 0.0657375 0.
0.673427 0.0643215 0.
0.67609 0.0628273 0.
0.678753 0.0612755 0.
0.681413 0.0596847 0.
0.68406 0.0580553 0.
0.686716 0.0563867 0.
0.689379 0.0546748 0.
0.692039 0.0528562 0.
0.694708 0.0509686 0.
0.697389 0.0490844 0.
0.700109 0.0472337 0.
0.70287 0.0454149 0.
0.705679 0.0436019 0.
0.708542 0.0417801 0.
0.711445 0.0399893 0.
0.714378 0.0382937 0.
0.717331 0.0367673 0.
0.720263 0.035553 0.
0.723145 0.0347074 0.
0.725952 0.0342467 0.
0.472898 0.0356899 0.
0.475668 0.0362203 0.
0.478515 0.0371559 0.
0.481404 0.038432 0.
0.4843 0.0399841 0.
0.487156 0.0416799 0.
0.489966 0.043439 0.
0.492727 0.0452455 0.
0.495428 0.0470852 0.
0.498079 0.0489425 0.
0.500705 0.050795 0.
0.503309 0.0525769 0.
0.505896 0.0542744 0.
0.508476 0.0559273 0.
0.511056 0.0575692 0.
0.513652 0.0592234 0.
0.516261 0.0608973 0.
0.518885 0.0625381 0.
0.521525 0.0641137 0.
0.52417 0.0656154 0.
0.526821 0.0670511 0.
0.529486 0.0683913 0.
0.532161 0.069678 0.
0.534841 0.0709195 0.
0.537527 0.0720889 0.
0.540216 0.0731854 0.
0.542896 0.0742483 0.
0.545564 0.0752574 0.
0.548228 0.0762153 0.
0.550893 0.0771268 0.
0.553551 0.0780186 0.
0.556193 0.078868 0.
0.55884 0.0796611 0.
0.561464 0.080371 0.
0.564068 0.0809998 0.
0.566646 0.0815666 0.
0.569144 0.0821221 0.
0.57165 0.0826991 0.
0.574037 0.0830255 0.
0.576427 0.0833359 0.
0.578748 0.0836286 0.
0.581003 0.0839332 0.
0.58326 0.0842361 0.
0.585378 0.0843026 0.
0.587494 0.0843675 0.
0.589602 0.0844222 0.
0.591692 0.0844633 0.
0.593783 0.0845045 0.
0.595873 0.0845197 0.
0.597963 0.0845253 0.
0.600052 0.0845306 0.
0.602146 0.0845021 0.
0.604238 0.0844737 0.
0.606333 0.0844362 0.
0.60843 0.0843784 0.
0.610528 0.0843208 0.
0.612665 0.0842339 0.
0.614817 0.0841335 0.
0.616984 0.0840187 0.
0.619301 0.0836765 0.
0.621605 0.0833388 0.
0.623991 0.0829946 0.
0.626423 0.0826313 0.
0.628868 0.082216 0.
0.631399 0.0815882 0.
0.633936 0.0809893 0.
0.636545 0.0803389 0.
0.639163 0.0796184 0.
0.641804 0.078858 0.
0.644458 0.0780867 0.
0.647112 0.0772065 0.
0.649777 0.0762646 0.
0.652455 0.0753026 0.
0.655131 0.0742822 0.
0.65781 0.0732004 0.
0.660496 0.072066 0.
0.663184 0.0708974 0.
0.665869 0.0696638 0.
0.668541 0.0683692 0.
0.6712 0.0670211 0.
0.673849 0.065617 0.
0.676481 0.0641386 0.
0.679105 0.0626101 0.
0.681725 0.0610481 0.
0.684327 0.0594504 0.
0.686922 0.0578162 0.
0.68952 0.0561464 0.
0.692119 0.054376 0.
0.694718 0.0525388 0.
0.697313 0.0507059 0.
0.699935 0.0488953 0.
0.702598 0.047106 0.
0.705307 0.045329 0.
0.708075 0.0435333 0.
0.710894 0.0417547 0.
0.713756 0.0400568 0.
0.71664 0.0385108 0.
0.719508 0.0372527 0.
0.722328 0.0363758 0.
0.725082 0.0358733 0.
0.473799 0.0373553 0.
0.47652 0.0379284 0.
0.479316 0.0389185 0.
0.482143 0.0402439 0.
0.484952 0.0418161 0.
0.48772 0.0435089 0.
0.490441 0.0452632 0.
0.493094 0.0470458 0.
0.495692 0.0488486 0.
0.498255 0.0506693 0.
0.500793 0.0524682 0.
0.503314 0.0541949 0.
0.505828 0.0558516 0.
0.508338 0.0574622 0.
0.510857 0.059058 0.
0.513403 0.0606633 0.
0.515966 0.0622867 0.
0.518544 0.0638917 0.
0.521144 0.0654421 0.
0.523756 0.0669244 0.
0.526379 0.0683483 0.
0.529026 0.0696803 0.
0.531686 0.0709612 0.
0.534348 0.0722005 0.
0.537023 0.0733733 0.
0.539703 0.0744782 0.
0.542375 0.0755505 0.
0.545037 0.0765706 0.
0.547696 0.0775342 0.
0.550358 0.0784533 0.
0.553014 0.0793543 0.
0.555664 0.0802189 0.
0.558316 0.0810267 0.
0.560951 0.0817869 0.
0.563564 0.0824609 0.
0.566174 0.0830875 0.
0.568716 0.083699 0.
0.571266 0.0843343 0.
0.573731 0.0847179 0.
0.576172 0.0850564 0.
0.578535 0.0853913 0.
0.580807 0.0857366 0.
0.583094 0.086083 0.
0.585253 0.0861759 0.
0.587406 0.0862593 0.
0.589545 0.0863282 0.
0.591648 0.0863704 0.
0.593752 0.0864125 0.
0.595856 0.0864275 0.
0.597959 0.0864325 0.
0.600062 0.0864369 0.
0.60217 0.0864073 0.
0.604276 0.0863777 0.
0.606385 0.0863386 0.
0.608497 0.0862793 0.
0.610608 0.0862199 0.
0.612779 0.0861084 0.
0.614967 0.0859801 0.
0.617182 0.085826 0.
0.619537 0.0854406 0.
0.621875 0.085063 0.
0.624327 0.0846698 0.
0.626819 0.0842656 0.
0.62933 0.0837682 0.
0.631883 0.0830784 0.
0.634447 0.0824206 0.
0.637068 0.0817407 0.
0.639691 0.0810008 0.
0.642339 0.0802227 0.
0.645 0.0794321 0.
0.647658 0.0785297 0.
0.650316 0.0775762 0.
0.652988 0.0766055 0.
0.655654 0.0755806 0.
0.658321 0.0744894 0.
0.660991 0.0733535 0.
0.663669 0.0721779 0.
0.666341 0.0709486 0.
0.668995 0.069661 0.
0.671639 0.0683244 0.
0.674264 0.0669341 0.
0.676863 0.0654737 0.
0.679453 0.0639708 0.
0.682032 0.0624404 0.
0.68459 0.0608792 0.
0.687133 0.0592829 0.
0.689667 0.0576566 0.
0.692193 0.0559443 0.
0.694722 0.0541627 0.
0.69724 0.0523773 0.
0.699766 0.0506153 0.
0.702328 0.0488619 0.
0.704932 0.0471149 0.
0.707596 0.0453564 0.
0.710315 0.0435926 0.
0.713095 0.0418893 0.
0.715908 0.0403269 0.
0.718713 0.0390219 0.
0.721469 0.038099 0.
0.724173 0.0375445 0.
0.474746 0.0390667 0.
0.477421 0.0397055 0.
0.480158 0.0407612 0.
0.482903 0.0421331 0.
0.485623 0.0437186 0.
0.488297 0.0454144 0.
0.490906 0.0471486 0.
0.493448 0.0489007 0.
0.495949 0.0506698 0.
0.498415 0.0524383 0.
0.500868 0.0541797 0.
0.503312 0.055857 0.
0.50575 0.0574665 0.
0.508193 0.0590329 0.
0.510655 0.060581 0.
0.513148 0.0621295 0.
0.515661 0.0637026 0.
0.518194 0.0652701 0.
0.520755 0.0667881 0.
0.523336 0.0682482 0.
0.525939 0.0696571 0.
0.528569 0.07098 0.
0.531211 0.0722536 0.
0.533861 0.0734904 0.
0.536526 0.0746655 0.
0.539194 0.0757775 0.
0.541856 0.0768554 0.
0.544511 0.0778867 0.
0.547166 0.078854 0.
0.549831 0.0797795 0.
0.552491 0.080691 0.
0.555145 0.0815675 0.
0.557799 0.0823878 0.
0.560441 0.0831804 0.
0.563066 0.0839014 0.
0.565691 0.0845697 0.
0.568261 0.085205 0.
0.57082 0.0858427 0.
0.573315 0.0862965 0.
0.575783 0.0866989 0.
0.57821 0.0871056 0.
0.580535 0.0874968 0.
0.582879 0.0878919 0.
0.5851 0.0880266 0.
0.587304 0.088138 0.
0.589484 0.0882281 0.
0.591602 0.0882712 0.
0.59372 0.0883143 0.
0.595837 0.0883293 0.
0.597955 0.0883334 0.
0.600073 0.088337 0.
0.602195 0.0883058 0.
0.604316 0.0882747 0.
0.606441 0.0882338 0.
0.60857 0.0881727 0.
0.610698 0.0881117 0.
0.612918 0.0879646 0.
0.615157 0.0877958 0.
0.61744 0.0875842 0.
0.619851 0.087146 0.
0.622242 0.0867181 0.
0.624745 0.0862601 0.
0.627262 0.0858134 0.
0.629804 0.0852483 0.
0.632372 0.0845294 0.
0.634958 0.0838377 0.
0.637585 0.0831359 0.
0.640214 0.0823738 0.
0.642865 0.0815775 0.
0.645527 0.08077 0.
0.648189 0.0798551 0.
0.65085 0.0788907 0.
0.653519 0.0779115 0.
0.656176 0.076882 0.
0.658834 0.0757842 0.
0.661492 0.0746479 0.
0.664152 0.0734681 0.
0.666807 0.0722435 0.
0.669446 0.0709653 0.
0.672071 0.0696423 0.
0.674675 0.0682673 0.
0.677247 0.066827 0.
0.679803 0.0653527 0.
0.682346 0.0638579 0.
0.684861 0.0623334 0.
0.687352 0.0607818 0.
0.689826 0.0592015 0.
0.692284 0.057546 0.
0.694733 0.0558306 0.
0.697174 0.054096 0.
0.699616 0.0523765 0.
0.702079 0.050671 0.
0.704574 0.0489607 0.
0.707126 0.0472364 0.
0.709733 0.045505 0.
0.712408 0.0437995 0.
0.715139 0.0422127 0.
0.717876 0.0408664 0.
0.720569 0.039888 0.
0.723219 0.0392677 0.
0.475716 0.0408369 0.
0.478335 0.04156 0.
0.480992 0.0426735 0.
0.483645 0.0440824 0.
0.486264 0.0456811 0.
0.488824 0.0473636 0.
0.491314 0.0490666 0.
0.493749 0.0507867 0.
0.496148 0.052509 0.
0.498524 0.0542223 0.
0.500897 0.0559088 0.
0.503267 0.0575331 0.
0.505639 0.059098 0.
0.508021 0.060621 0.
0.510426 0.062117 0.
0.51287 0.0636137 0.
0.515337 0.0651407 0.
0.517829 0.0666657 0.
0.520355 0.06815 0.
0.522915 0.0695885 0.
0.525499 0.0709791 0.
0.528112 0.0722909 0.
0.530744 0.0735563 0.
0.533382 0.0747912 0.
0.536037 0.0759667 0.
0.538694 0.0770829 0.
0.541346 0.0781649 0.
0.543997 0.0792067 0.
0.546655 0.0801784 0.
0.549322 0.0811079 0.
0.551979 0.0820287 0.
0.554632 0.0829161 0.
0.55729 0.0837481 0.
0.559936 0.0845606 0.
0.562568 0.0853102 0.
0.565198 0.0859928 0.
0.567786 0.0866559 0.
0.570358 0.0873211 0.
0.572887 0.0878535 0.
0.575388 0.0883243 0.
0.577877 0.0888119 0.
0.580258 0.089249 0.
0.582659 0.0896918 0.
0.584946 0.0898706 0.
0.587201 0.0900093 0.
0.589425 0.0901234 0.
0.591556 0.0901671 0.
0.593688 0.0902107 0.
0.59582 0.0902255 0.
0.597952 0.0902288 0.
0.600084 0.0902316 0.
0.60222 0.0901991 0.
0.604356 0.0901666 0.
0.606496 0.0901241 0.
0.608642 0.0900619 0.
0.610787 0.09 0.
0.613058 0.0898142 0.
0.615349 0.0896044 0.
0.617705 0.0893327 0.
0.620173 0.0888417 0.
0.622624 0.0883577 0.
0.625172 0.0878302 0.
0.627718 0.0873246 0.
0.630285 0.0866892 0.
0.632865 0.0859515 0.
0.635468 0.0852422 0.
0.638098 0.0845246 0.
0.640732 0.0837435 0.
0.643385 0.0829322 0.
0.646048 0.0821057 0.
0.648706 0.0811808 0.
0.651365 0.0802085 0.
0.654034 0.0792226 0.
0.65669 0.0781886 0.
0.65934 0.0770858 0.
0.661987 0.0759488 0.
0.664634 0.0747691 0.
0.667272 0.0735506 0.
0.669893 0.0722831 0.
0.672503 0.0709749 0.
0.675089 0.0696142 0.
0.677639 0.0681959 0.
0.680167 0.0667503 0.
0.682674 0.065292 0.
0.685149 0.0638062 0.
0.687597 0.0622964 0.
0.690019 0.0607654 0.
0.692414 0.0591629 0.
0.694792 0.0575085 0.
0.697151 0.0558346 0.
0.699511 0.0541602 0.
0.701887 0.0524967 0.
0.70428 0.0508353 0.
0.706716 0.0491516 0.
0.709205 0.0474552 0.
0.711759 0.0457705 0.
0.714381 0.0441627 0.
0.717036 0.0427734 0.
0.719662 0.041737 0.
0.722252 0.041055 0.
0.476657 0.0426778 0.
0.4792 0.043477 0.
0.481764 0.0446386 0.
0.484311 0.0460763 0.
0.486809 0.0476712 0.
0.489243 0.0493247 0.
0.491617 0.0509935 0.
0.493942 0.0526694 0.
0.496247 0.0543397 0.
0.498544 0.0559995 0.
0.500845 0.0576312 0.
0.50315 0.0592076 0.
0.505461 0.0607329 0.
0.507793 0.0622114 0.
0.510152 0.0636617 0.
0.512555 0.0651151 0.
0.514982 0.0665939 0.
0.517439 0.0680767 0.
0.519944 0.0695297 0.
0.522488 0.0709459 0.
0.525055 0.0723165 0.
0.527659 0.0736167 0.
0.530282 0.0748739 0.
0.532912 0.0761055 0.
0.535555 0.0772797 0.
0.538201 0.0783987 0.
0.540849 0.0794828 0.
0.543501 0.0805327 0.
0.546159 0.0815082 0.
0.548826 0.0824415 0.
0.551483 0.0833705 0.
0.554136 0.0842675 0.
0.556795 0.0851082 0.
0.559443 0.0859318 0.
0.56208 0.0867045 0.
0.564716 0.0874099 0.
0.567324 0.0881006 0.
0.569912 0.088792 0.
0.572472 0.0893888 0.
0.57501 0.089916 0.
0.577541 0.0904505 0.
0.579955 0.0908954 0.
0.582381 0.0913387 0.
0.584737 0.0915885 0.
0.587069 0.0918117 0.
0.589366 0.091999 0.
0.591512 0.0920433 0.
0.593659 0.0920877 0.
0.595805 0.0921025 0.
0.597951 0.0921054 0.
0.600097 0.0921076 0.
0.602246 0.0920731 0.
0.604395 0.0920387 0.
0.60655 0.0919926 0.
0.608712 0.0919252 0.
0.610874 0.0918582 0.
0.613231 0.091587 0.
0.615597 0.0912986 0.
0.618016 0.0909579 0.
0.620506 0.090456 0.
0.623002 0.0899498 0.
0.625584 0.0893786 0.
0.628162 0.0888137 0.
0.630753 0.0881272 0.
0.633348 0.0873709 0.
0.635965 0.0866472 0.
0.638597 0.0859096 0.
0.641235 0.0851093 0.
0.64389 0.0842887 0.
0.646553 0.0834455 0.
0.64921 0.082512 0.
0.651865 0.0815328 0.
0.654529 0.0805426 0.
0.657186 0.0795038 0.
0.659837 0.0783976 0.
0.662477 0.077259 0.
0.665112 0.0760836 0.
0.667739 0.0748729 0.
0.670345 0.0736144 0.
0.67294 0.0723205 0.
0.67551 0.0709765 0.
0.678042 0.0695796 0.
0.68055 0.0681643 0.
0.683029 0.0667411 0.
0.685468 0.0652932 0.
0.68788 0.063823 0.
0.690259 0.062336 0.
0.692604 0.0607861 0.
0.694924 0.0591838 0.
0.697214 0.0575644 0.
0.699497 0.0559436 0.
0.701787 0.0543217 0.
0.704092 0.0527059 0.
0.706422 0.0510739 0.
0.708789 0.0494191 0.
0.711216 0.0477663 0.
0.713707 0.046162 0.
0.71625 0.0447399 0.
0.718795 0.0436424 0.
0.721319 0.0429021 0.
0.47753 0.0445911 0.
0.479983 0.0454494 0.
0.482437 0.0466511 0.
0.48486 0.048097 0.
0.487222 0.04967 0.
0.489532 0.0512885 0.
0.491793 0.052912 0.
0.494022 0.0545392 0.
0.496247 0.0561598 0.
0.498475 0.0577655 0.
0.500716 0.0593483 0.
0.502969 0.0608869 0.
0.505235 0.0623719 0.
0.507531 0.0638129 0.
0.509858 0.0652307 0.
0.512228 0.066641 0.
0.514624 0.0680742 0.
0.517061 0.0695182 0.
0.519551 0.0709396 0.
0.522078 0.0723299 0.
0.524633 0.0736788 0.
0.527227 0.0749662 0.
0.52984 0.0762144 0.
0.532459 0.0774389 0.
0.535089 0.0786106 0.
0.53773 0.0797302 0.
0.540379 0.0808148 0.
0.543029 0.0818693 0.
0.545686 0.0828487 0.
0.548353 0.0837853 0.
0.55101 0.0847213 0.
0.553662 0.0856254 0.
0.55632 0.0864714 0.
0.558971 0.0873046 0.
0.561614 0.088098 0.
0.564256 0.088822 0.
0.56688 0.0895381 0.
0.569481 0.0902521 0.
0.572062 0.0908835 0.
0.574611 0.0914393 0.
0.57716 0.0920116 0.
0.579621 0.0924967 0.
0.582085 0.0929655 0.
0.584514 0.0932929 0.
0.58693 0.0936069 0.
0.589306 0.0938745 0.
0.591467 0.0939196 0.
0.593629 0.0939647 0.
0.59579 0.0939796 0.
0.597949 0.093982 0.
0.600109 0.0939836 0.
0.602272 0.0939471 0.
0.604434 0.0939108 0.
0.606604 0.0938608 0.
0.608783 0.0937883 0.
0.610962 0.0937162 0.
0.613418 0.0933461 0.
0.615873 0.0929637 0.
0.618362 0.0925363 0.
0.62088 0.0919928 0.
0.62341 0.0914383 0.
0.626001 0.0908575 0.
0.628594 0.090267 0.
0.631201 0.0895613 0.
0.633811 0.0887902 0.
0.636439 0.0880516 0.
0.639075 0.0872957 0.
0.641715 0.0864793 0.
0.644368 0.0856523 0.
0.647033 0.0847944 0.
0.649688 0.0838538 0.
0.652343 0.082868 0.
0.655004 0.0818752 0.
0.657656 0.0808344 0.
0.660304 0.0797261 0.
0.662945 0.0785858 0.
0.665574 0.0774169 0.
0.668188 0.0762181 0.
0.670781 0.0749716 0.
0.673361 0.0736895 0.
0.675915 0.0723644 0.
0.678433 0.0709934 0.
0.680923 0.0696085 0.
0.683381 0.0682179 0.
0.685792 0.066804 0.
0.688174 0.0653722 0.
0.690526 0.0639223 0.
0.692835 0.0624186 0.
0.695111 0.060866 0.
0.697351 0.0592917 0.
0.699572 0.0577168 0.
0.701789 0.0561422 0.
0.704011 0.0545689 0.
0.706251 0.0529866 0.
0.70851 0.051385 0.
0.71081 0.049772 0.
0.713166 0.0481886 0.
0.715574 0.0467559 0.
0.71801 0.0456115 0.
0.720449 0.0448099 0.
0.47828 0.0465623 0.
0.480627 0.047463 0.
0.482957 0.0486905 0.
0.485244 0.0501332 0.
0.487481 0.0516724 0.
0.48968 0.0532464 0.
0.491844 0.0548246 0.
0.494 0.0564036 0.
0.496167 0.0579764 0.
0.498342 0.0595368 0.
0.500538 0.0610808 0.
0.502753 0.0625785 0.
0.504991 0.0640309 0.
0.507268 0.0654447 0.
0.509569 0.0668278 0.
0.511912 0.0681972 0.
0.514293 0.0695916 0.
0.516717 0.0709977 0.
0.519194 0.0723856 0.
0.521708 0.0737497 0.
0.524254 0.075078 0.
0.526835 0.0763476 0.
0.529435 0.0775837 0.
0.532041 0.0787983 0.
0.534666 0.0799662 0.
0.537303 0.0810842 0.
0.539945 0.0821669 0.
0.542593 0.0832222 0.
0.545249 0.0842062 0.
0.547912 0.0851468 0.
0.550565 0.0860835 0.
0.553215 0.086992 0.
0.555873 0.0878423 0.
0.558526 0.0886825 0.
0.561175 0.0894917 0.
0.563827 0.090232 0.
0.566458 0.0909675 0.
0.569062 0.0916988 0.
0.571656 0.0923622 0.
0.574217 0.0929523 0.
0.57678 0.0935599 0.
0.579287 0.0940853 0.
0.58179 0.0945748 0.
0.58429 0.0949696 0.
0.586789 0.0953702 0.
0.589242 0.0957281 0.
0.591419 0.0957736 0.
0.593598 0.0958192 0.
0.595774 0.0958343 0.
0.597948 0.0958366 0.
0.600123 0.095838 0.
0.602299 0.0958005 0.
0.604475 0.0957631 0.
0.606661 0.0957096 0.
0.608858 0.095632 0.
0.611054 0.095555 0.
0.613605 0.0950781 0.
0.616153 0.0946066 0.
0.618702 0.0940991 0.
0.621249 0.0935162 0.
0.623813 0.09292 0.
0.626414 0.0923184 0.
0.629014 0.0916984 0.
0.631626 0.0909802 0.
0.634244 0.090208 0.
0.63688 0.0894581 0.
0.639521 0.0886855 0.
0.642164 0.0878579 0.
0.644815 0.0870251 0.
0.647476 0.0861567 0.
0.65013 0.0852117 0.
0.652784 0.0842219 0.
0.655442 0.083226 0.
0.65809 0.0821835 0.
0.660731 0.0810789 0.
0.663367 0.0799392 0.
0.665996 0.0787764 0.
0.668604 0.0775899 0.
0.671182 0.07636 0.
0.673747 0.0750946 0.
0.676287 0.0737878 0.
0.678791 0.0724444 0.
0.681264 0.0710961 0.
0.683705 0.069735 0.
0.686099 0.068349 0.
0.688461 0.0669492 0.
0.690791 0.0655387 0.
0.693079 0.0640755 0.
0.695325 0.062564 0.
0.697529 0.061033 0.
0.699711 0.0594945 0.
0.701874 0.0579598 0.
0.704031 0.0564333 0.
0.706196 0.0548942 0.
0.70837 0.0533422 0.
0.710562 0.0517778 0.
0.712793 0.0502258 0.
0.715065 0.0487946 0.
0.717375 0.047626 0.
0.719708 0.0467753 0.
0.478856 0.0485558 0.
0.481089 0.0495067 0.
0.483294 0.0507636 0.
0.485462 0.0521901 0.
0.487594 0.0536925 0.
0.489702 0.0552277 0.
0.491801 0.0567611 0.
0.493906 0.0582959 0.
0.496034 0.0598342 0.
0.498175 0.061358 0.
0.500342 0.0628607 0.
0.502541 0.0643235 0.
0.504772 0.0657497 0.
0.507029 0.0671306 0.
0.509309 0.0684781 0.
0.51164 0.0698103 0.
0.514016 0.0711642 0.
0.516429 0.0725307 0.
0.518896 0.0738895 0.
0.521398 0.0752298 0.
0.523933 0.0765294 0.
0.526501 0.0777746 0.
0.52909 0.0789982 0.
0.531692 0.0802038 0.
0.53431 0.0813603 0.
0.536939 0.0824715 0.
0.53958 0.0835564 0.
0.542226 0.0846137 0.
0.544874 0.0855963 0.
0.547529 0.0865356 0.
0.550176 0.0874726 0.
0.552824 0.0883816 0.
0.555488 0.089239 0.
0.55815 0.0900905 0.
0.560797 0.0909012 0.
0.563445 0.0916519 0.
0.566074 0.0924022 0.
0.568684 0.0931521 0.
0.571292 0.0938405 0.
0.573876 0.094463 0.
0.576465 0.0950938 0.
0.579018 0.0956367 0.
0.581563 0.0961268 0.
0.58411 0.0965758 0.
0.586658 0.0970901 0.
0.589169 0.0975637 0.
0.591366 0.0976111 0.
0.593564 0.0976586 0.
0.595757 0.0976747 0.
0.597947 0.0976771 0.
0.600137 0.0976786 0.
0.602328 0.0976399 0.
0.60452 0.0976012 0.
0.606725 0.0975428 0.
0.608942 0.097458 0.
0.611164 0.0973668 0.
0.613764 0.0967473 0.
0.616355 0.0961635 0.
0.618949 0.0956196 0.
0.621544 0.0950251 0.
0.624157 0.0944014 0.
0.626774 0.0937841 0.
0.62939 0.0931384 0.
0.632009 0.0924087 0.
0.634629 0.0916347 0.
0.637258 0.0908763 0.
0.6399 0.0900958 0.
0.642544 0.0892642 0.
0.6452 0.0884215 0.
0.647861 0.0875425 0.
0.650511 0.0865989 0.
0.653159 0.085609 0.
0.655817 0.0846089 0.
0.658461 0.0835697 0.
0.661095 0.0824693 0.
0.663721 0.0813313 0.
0.666343 0.0801779 0.
0.668953 0.0790075 0.
0.671525 0.0777967 0.
0.674073 0.0765515 0.
0.676597 0.0752714 0.
0.679095 0.0739534 0.
0.681555 0.0726416 0.
0.683981 0.071317 0.
0.686359 0.0699621 0.
0.688712 0.0685871 0.
0.691031 0.0672068 0.
0.693306 0.0657902 0.
0.695541 0.0643181 0.
0.697724 0.0628218 0.
0.699876 0.0613169 0.
0.702008 0.0598151 0.
0.704124 0.0583255 0.
0.706233 0.056831 0.
0.708343 0.0553233 0.
0.710456 0.053801 0.
0.712584 0.0522803 0.
0.714739 0.0508602 0.
0.716928 0.0496657 0.
0.719148 0.0487651 0.
CELLS 5000 10000
1 0
1 1
1 2
1 3
1 4
1 5
1 6
1 7
1 8
1 9
1 10
1 11
1 12
1 13
1 14
1 15
1 16
1 17
1 18
1 19
1 20
1 21
1 22
1 23
1 24
1 25
1 26
1 27
1 28
1 29
1 30
1 31
1 32
1 33
1 34
1 35
1 36
1 37
1 38
1 39
1 40
1 41
1 42
1 43
1 44
1 45
1 46
1 47
1 48
1 49
1 50
1 51
1 52
1 53
1 54
1 55
1 56
1 57
1 58
1 59
1 60
1 61
1 62
1 63
1 64
1 65
1 66
1 67
1 68
1 69
1 70
1 71
1 72
1 73
1 74
1 75
1 76
1 77
1 78
1 79
1 80
1 81
1 82
1 83
1 84
1 85
1 86
1 87
1 88
1 89
1 90
1 91
1 92
1 93
1 94
1 95
1 96
1 97
1 98
1 99
1 100
1 101
1 102
1 103
1 104
1 105
1 106
1 107
1 108
1 109
1 110
1 111
1 112
1 113
1 114
1 115
1 116
1 117
1 118
1 119
1 120
1 121
1 122
1 123
1 124
1 125
1 126
1 127
1 128
1 129
1 130
1 131
1 132
1 133
1 134
1 135
1 136
1 137
1 138
1 139
1 140
1 141
1 142
1 143
1 144
1 145
1 146
1 147
1 148
1 149
1 150
1 151
1 152
1 153
1 154
1 155
1 156
1 157
1 158
1 159
1 160
1 161
1 162
1 163
1 164
1 165
1 166
1 167
1 168
1 169
1 170
1 171
1 172
1 173
1 174
1 175
1 176
1 177
1 178
1 179
1 180
1 181
1 182
1 183
1 184
1 185
1 186
1 187
1 188
1 189
1 190
1 191
1 192
1 193
1 194
1 195
1 196
1 197
1 198
1 199
1 200
1 201
1 202
1 203
1 204
1 205
1 206
1 207
1 208
1 209
1 210
1 211
1 212
1 213
1 214
1 215
1 216
1 217
1 218
1 219
1 220
1 221
1 222
1 223
1 224
1 225
1 226
1 227
1 228
1 229
1 230
1 231
1 232
1 233
1 234
1 235
1 236
1 237
1 238
1 239
1 240
1 241
1 242
1 243
1 244
1 245
1 246
1 247
1 248
1 249
1 250
1 251
1 252
1 253
1 254
1 255
1 256
1 257
1 258
1 259
1 260
1 261
1 262
1 263
1 264
1 265
1 266
1 267
1 268
1 269
1 270
1 271
1 272
1 273
1 274
1 275
1 276
1 277
1 278
1 279
1 280
1 281
1 282
1 283
1 284
1 285
1 286
1 287
1 288
1 289
1 290
1 291
1 292
1 293
1 294
1 295
1 296
1 297
1 298
1 299
1 300
1 301
1 302
1 303
1 304
1 305
1 306
1 307
1 308
1 309
1 310
1 311
1 312
1 313
1 314
1 315
1 316
1 317
1 318
1 319
1 320
1 321
1 322
1 323
1 324
1 325
1 326
1 327
1 328
1 329
1 330
1 331
1 332
1 333
1 334
1 335
1 336
1 337
1 338
1 339
1 340
1 341
1 342
1 343
1 344
1 345
1 346
1 347
1 348
1 349
1 350
1 351
1 352
1 353
1 354
1 355
1 356
1 357
1 358
1 359
1 360
1 361
1 362
1 363
1 364
1 365
1 366
1 367
1 368
1 369
1 370
1 371
1 372
1 373
1 374
1 375
1 376
1 377
1 378
1 379
1 380
1 381
1 382
1 383
1 384
1 385
1 386
1 387
1 388
1 389
1 390
1 391
1 392
1 393
1 394
1 395
1 396
1 397
1 398
1 399
1 400
1 401
1 402
1 403
1 404
1 405
1 406
1 407
1 408
1 409
1 410
1 411
1 412
1 413
1 414
1 415
1 416
1 417
1 418
1 419
1 420
1 421
1 422
1 423
1 424
1 425
1 426
1 427
1 428
1 429
1 430
1 431
1 432
1 433
1 434
1 435
1 436
1 437
1 438
1 439
1 440
1 441
1 442
1 443
1 444
1 445
1 446
1 447
1 448
1 449
1 450
1 451
1 452
1 453
1 454
1 455
1 456
1 457
1 458
1 459
1 460
1 461
1 462
1 463
1 464
1 465
1 466
1 467
1 468
1 469
1 470
1 471
1 472
1 473
1 474
1 475
1 476
1 477
1 478
1 479
1 480
1 481
1 482
1 483
1 484
1 485
1 486
1 487
1 488
1 489
1 490
1 491
1 492
1 493
1 494
1 495
1 496
1 497
1 498
1 499
1 500
1 501
1 502
1 503
1 504
1 505
1 506
1 507
1 508
1 509
1 510
1 511
1 512
1 513
1 514
1 515
1 516
1 517
1 518
1 519
1 520
1 521
1 522
1 523
1 524
1 525
1 526
1 527
1 528
1 529
1 530
1 531
1 532
1 533
1 534
1 535
1 536
1 537
1 538
1 539
1 540
1 541
1 542
1 543
1 544
1 545
1 546
1 547
1 548
1 549
1 550
1 551
1 552
1 553
1 554
1 555
1 556
1 557
1 558
1 559
1 560
1 561
1 562
1 563
1 564
1 565
1 566
1 567
1 568
1 569
1 570
1 571
1 572
1 573
1 574
1 575
1 576
1 577
1 578
1 579
1 580
1 581
1 582
1 583
1 584
1 585
1 586
1 587
1 588
1 589
1 590
1 591
1 592
1 593
1 594
1 595
1 596
1 597
1 598
1 599
1 600
1 601
1 602
1 603
1 604
1 605
1 606
1 607
1 608
1 609
1 610
1 611
1 612
1 613
1 614
1 615
1 616
1 617
1 618
1 619
1 620
1 621
1 622
1 623
1 624
1 625
1 626
1 627
1 628
1 629
1 630
1 631
1 632
1 633
1 634
1 635
1 636
1 637
1 638
1 639
1 640
1 641
1 642
1 643
1 644
1 645
1 646
1 647
1 648
1 649
1 650
1 651
1 652
1 653
1 654
1 655
1 656
1 657
1 658
1 659
1 660
1 661
1 662
1 663
1 664
1 665
1 666
1 667
1 668
1 669
1 670
1 671
1 672
1 673
1 674
1 675
1 676
1 677
1 678
1 679
1 680
1 681
1 682
1 683
1 684
1 685
1 686
1 687
1 688
1 689
1 690
1 691
1 692
1 693
1 694
1 695
1 696
1 697
1 698
1 699
1 700
1 701
1 702
1 703
1 704
1 705
1 706
1 707
1 708
1 709
1 710
1 711
1 712
1 713
1 714
1 715
1 716
1 717
1 718
1 719
1 720
1 721
1 722
1 723
1 724
1 725
1 726
1 727
1 728
1 729
1 730
1 731
1 732
1 733
1 734
1 735
1 736
1 737
1 738
1 739
1 740
1 741
1 742
1 743
1 744
1 745
1 746
1 747
1 748
1 749
1 750
1 751
1 752
1 753
1 754
1 755
1 756
1 757
1 758
1 759
1 760
1 761
1 762
1 763
1 764
1 765
1 766
1 767
1 768
1 769
1 770
1 771
1 772
1 773
1 774
1 775
1 776
1 777
1 778
1 779
1 780
1 781
1 782
1 783
1 784
1 785
1 786
1 787
1 788
1 789
1 790
1 791
1 792
1 793
1 794
1 795
1 796
1 797
1 798
1 799
1 800
1 801
1 802
1 803
1 804
1 805
1 806
1 807
1 808
1 809
1 810
1 811
1 812
1 813
1 814
1 815
1 816
1 817
1 818
1 819
1 820
1 821
1 822
1 823
1 824
1 825
1 826
1 827
1 828
1 829
1 830
1 831
1 832
1 833
1 834
1 835
1 836
1 837
1 838
1 839
1 840
1 841
1 842
1 843
1 844
1 845
1 846
1 847
1 848
1 849
1 850
1 851
1 852
1 853
1 854
1 855
1 856
1 857
1 858
1 859
1 860
1 861
1 862
1 863
1 864
1 865
1 866
1 867
1 868
1 869
1 870
1 871
1 872
1 873
1 874
1 875
1 876
1 877
1 878
1 879
1 880
1 881
1 882
1 883
1 884
1 885
1 886
1 887
1 888
1 889
1 890
1 891
1 892
1 893
1 894
1 895
1 896
1 897
1 898
1 899
1 900
1 901
1 902
1 903
1 904
1 905
1 906
1 907
1 908
1 909
1 910
1 911
1 912
1 913
1 914
1 915
1 916
1 917
1 918
1 919
1 920
1 921
1 922
1 923
1 924
1 925
1 926
1 927
1 928
1 929
1 930
1 931
1 932
1 933
1 934
1 935
1 936
1 937
1 938
1 939
1 940
1 941
1 942
1 943
1 944
1 945
1 946
1 947
1 948
1 949
1 950
1 951
1 952
1 953
1 954
1 955
1 956
1 957
1 958
1 959
1 960
1 961
1 962
1 963
1 964
1 965
1 966
1 967
1 968
1 969
1 970
1 971
1 972
1 973
1 974
1 975
1 976
1 977
1 978
1 979
1 980
1 981
1 982
1 983
1 984
1 985
1 986
1 987
1 988
1 989
1 990
1 991
1 992
1 993
1 994
1 995
1 996
1 997
1 998
1 999
1 1000
1 1001
1 1002
1 1003
1 1004
1 1005
1 1006
1 1007
1 1008
1 1009
1 1010
1 1011
1 1012
1 1013
1 1014
1 1015
1 1016
1 1017
1 1018
1 1019
1 1020
1 1021
1 1022
1 1023
1 1024
1 1025
1 1026
1 1027
1 1028
1 1029
1 1030
1 1031
1 1032
1 1033
1 1034
1 1035
1 1036
1 1037
1 1038
1 1039
1 1040
1 1041
1 1042
1 1043
1 1044
1 1045
1 1046
1 1047
1 1048
1 1049
1 1050
1 1051
1 1052
1 1053
1 1054
1 1055
1 1056
1 1057
1 1058
1 1059
1 1060
1 1061
1 1062
1 1063
1 1064
1 1065
1 1066
1 1067
1 1068
1 1069
1 1070
1 1071
1 1072
1 1073
1 1074
1 1075
1 1076
1 1077
1 1078
1 1079
1 1080
1 1081
1 1082
1 1083
1 1084
1 1085
1 1086
1 1087
1 1088
1 1089
1 1090
1 1091
1 1092
1 1093
1 1094
1 1095
1 1096
1 1097
1 1098
1 1099
1 1100
1 1101
1 1102
1 1103
1 1104
1 1105
1 1106
1 1107
1 1108
1 1109
1 1110
1 1111
1 1112
1 1113
1 1114
1 1115
1 1116
1 1117
1 1118
1 1119
1 1120
1 1121
1 1122
1 1123
1 1124
1 1125
1 1126
1 1127
1 1128
1 1129
1 1130
1 1131
1 1132
1 1133
1 1134
1 1135
1 1136
1 1137
1 1138
1 1139
1 1140
1 1141
1 1142
1 1143
1 1144
1 1145
1 1146
1 1147
1 1148
1 1149
1 1150
1 1151
1 1152
1 1153
1 1154
1 1155
1 1156
1 1157
1 1158
1 1159
1 1160
1 1161
1 1162
1 1163
1 1164
1 1165
1 1166
1 1167
1 1168
1 1169
1 1170
1 1171
1 1172
1 1173
1 1174
1 1175
1 1176
1 1177
1 1178
1 1179
1 1180
1 1181
1 1182
1 1183
1 1184
1 1185
1 1186
1 1187
1 1188
1 1189
1 1190
1 1191
1 1192
1 1193
1 1194
1 1195
1 1196
1 1197
1 1198
1 1199
1 1200
1 1201
1 1202
1 1203
1 1204
1 1205
1 1206
1 1207
1 1208
1 1209
1 1210
1 1211
1 1212
1 1213
1 1214
1 1215
1 1216
1 1217
1 1218
1 1219
1 1220
1 1221
1 1222
1 1223
1 1224
1 1225
1 1226
1 1227
1 1228
1 1229
1 1230
1 1231
1 1232
1 1233
1 1234
1 1235
1 1236
1 1237
1 1238
1 1239
1 1240
1 1241
1 1242
1 1243
1 1244
1 1245
1 1246
1 1247
1 1248
1 1249
1 1250
1 1251
1 1252
1 1253
1 1254
1 1255
1 1256
1 1257
1 1258
1 1259
1 1260
1 1261
1 1262
1 1263
1 1264
1 1265
1 1266
1 1267
1 1268
1 1269
1 1270
1 1271
1 1272
1 1273
1 1274
1 1275
1 1276
1 1277
1 1278
1 1279
1 1280
1 1281
1 1282
1 1283
1 1284
1 1285
1 1286
1 1287
1 1288
1 1289
1 1290
1 1291
1 1292
1 1293
1 1294
1 1295
1 1296
1 1297
1 1298
1 1299
1 1300
1 1301
1 1302
1 1303
1 1304
1 1305
1 1306
1 1307
1 1308
1 1309
1 1310
1 1311
1 1312
1 1313
1 1314
1 1315
1 1316
1 1317
1 1318
1 1319
1 1320
1 1321
1 1322
1 1323
1 1324
1 1325
1 1326
1 1327
1 1328
1 1329
1 1330
1 1331
1 1332
1 1333
1 1334
1 1335
1 1336
1 1337
1 1338
1 1339
1 1340
1 1341
1 1342
1 1343
1 1344
1 1345
1 1346
1 1347
1 1348
1 1349
1 1350
1 1351
1 1352
1 1353
1 1354
1 1355
1 1356
1 1357
1 1358
1 1359
1 1360
1 1361
1 1362
1 1363
1 1364
1 1365
1 1366
1 1367
1 1368
1 1369
1 1370
1 1371
1 1372
1 1373
1 1374
1 1375
1 1376
1 1377
1 1378
1 1379
1 1380
1 1381
1 1382
1 1383
1 1384
1 1385
1 1386
1 1387
1 1388
1 1389
1 1390
1 1391
1 1392
1 1393
1 1394
1 1395
1 1396
1 1397
1 1398
1 1399
1 1400
1 1401
1 1402
1 1403
1 1404
1 1405
1 1406
1 1407
1 1408
1 1409
1 1410
1 1411
1 1412
1 1413
1 1414
1 1415
1 1416
1 1417
1 1418
1 1419
1 1420
1 1421
1 1422
1 1423
1 1424
1 1425
1 1426
1 1427
1 1428
1 1429
1 1430
1 1431
1 1432
1 1433
1 1434
1 1435
1 1436
1 1437
1 1438
1 1439
1 1440
1 1441
1 1442
1 1443
1 1444
1 1445
1 1446
1 1447
1 1448
1 1449
1 1450
1 1451
1 1452
1 1453
1 1454
1 1455
1 1456
1 1457
1 1458
1 1459
1 1460
1 1461
1 1462
1 1463
1 1464
1 1465
1 1466
1 1467
1 1468
1 1469
1 1470
1 1471
1 1472
1 1473
1 1474
1 1475
1 1476
1 1477
1 1478
1 1479
1 1480
1 1481
1 1482
1 1483
1 1484
1 1485
1 1486
1 1487
1 1488
1 1489
1 1490
1 1491
1 1492
1 1493
1 1494
1 1495
1 1496
1 1497
1 1498
1 1499
1 1500
1 1501
1 1502
1 1503
1 1504
1 1505
1 1506
1 1507
1 1508
1 1509
1 1510
1 1511
1 1512
1 1513
1 1514
1 1515
1 1516
1 1517
1 1518
1 1519
1 1520
1 1521
1 1522
1 1523
1 1524
1 1525
1 1526
1 1527
1 1528
1 1529
1 1530
1 1531
1 1532
1 1533
1 1534
1 1535
1 1536
1 1537
1 1538
1 1539
1 1540
1 1541
1 1542
1 1543
1 1544
1 1545
1 1546
1 1547
1 1548
1 1549
1 1550
1 1551
1 1552
1 1553
1 1554
1 1555
1 1556
1 1557
1 1558
1 1559
1 1560
1 1561
1 1562
1 1563
1 1564
1 1565
1 1566
1 1567
1 1568
1 1569
1 1570
1 1571
1 1572
1 1573
1 1574
1 1575
1 1576
1 1577
1 1578
1 1579
1 1580
1 1581
1 1582
1 1583
1 1584
1 1585
1 1586
1 1587
1 1588
1 1589
1 1590
1 1591
1 1592
1 1593
1 1594
1 1595
1 1596
1 1597
1 1598
1 1599
1 1600
1 1601
1 1602
1 1603
1 1604
1 1605
1 1606
1 1607
1 1608
1 1609
1 1610
1 1611
1 1612
1 1613
1 1614
1 1615
1 1616
1 1617
1 1618
1 1619
1 1620
1 1621
1 1622
1 1623
1 1624
1 1625
1 1626
1 1627
1 1628
1 1629
1 1630
1 1631
1 1632
1 1633
1 1634
1 1635
1 1636
1 1637
1 1638
1 1639
1 1640
1 1641
1 1642
1 1643
1 1644
1 1645
1 1646
1 1647
1 1648
1 1649
1 1650
1 1651
1 1652
1 1653
1 1654
1 1655
1 1656
1 1657
1 1658
1 1659
1 1660
1 1661
1 1662
1 1663
1 1664
1 1665
1 1666
1 1667
1 1668
1 1669
1 1670
1 1671
1 1672
1 1673
1 1674
1 1675
1 1676
1 1677
1 1678
1 1679
1 1680
1 1681
1 1682
1 1683
1 1684
1 1685
1 1686
1 1687
1 1688
1 1689
1 1690
1 1691
1 1692
1 1693
1 1694
1 1695
1 1696
1 1697
1 1698
1 1699
1 1700
1 1701
1 1702
1 1703
1 1704
1 1705
1 1706
1 1707
1 1708
1 1709
1 1710
1 1711
1 1712
1 1713
1 1714
1 1715
1 1716
1 1717
1 1718
1 1719
1 1720
1 1721
1 1722
1 1723
1 1724
1 1725
1 1726
1 1727
1 1728
1 1729
1 1730
1 1731
1 1732
1 1733
1 1734
1 1735
1 1736
1 1737
1 1738
1 1739
1 1740
1 1741
1 1742
1 1743
1 1744
1 1745
1 1746
1 1747
1 1748
1 1749
1 1750
1 1751
1 1752
1 1753
1 1754
1 1755
1 1756
1 1757
1 1758
1 1759
1 1760
1 1761
1 1762
1 1763
1 1764
1 1765
1 1766
1 1767
1 1768
1 1769
1 1770
1 1771
1 1772
1 1773
1 1774
1 1775
1 1776
1 1777
1 1778
1 1779
1 1780
1 1781
1 1782
1 1783
1 1784
1 1785
1 1786
1 1787
1 1788
1 1789
1 1790
1 1791
1 1792
1 1793
1 1794
1 1795
1 1796
1 1797
1 1798
1 1799
1 1800
1 1801
1 1802
1 1803
1 1804
1 1805
1 1806
1 1807
1 1808
1 1809
1 1810
1 1811
1 1812
1 1813
1 1814
1 1815
1 1816
1 1817
1 1818
1 1819
1 1820
1 1821
1 1822
1 1823
1 1824
1 1825
1 1826
1 1827
1 1828
1 1829
1 1830
1 1831
1 1832
1 1833
1 1834
1 1835
1 1836
1 1837
1 1838
1 1839
1 1840
1 1841
1 1842
1 1843
1 1844
1 1845
1 1846
1 1847
1 1848
1 1849
1 1850
1 1851
1 1852
1 1853
1 1854
1 1855
1 1856
1 1857
1 1858
1 1859
1 1860
1 1861
1 1862
1 1863
1 1864
1 1865
1 1866
1 1867
1 1868
1 1869
1 1870
1 1871
1 1872
1 1873
1 1874
1 1875
1 1876
1 1877
1 1878
1 1879
1 1880
1 1881
1 1882
1 1883
1 1884
1 1885
1 1886
1 1887
1 1888
1 1889
1 1890
1 1891
1 1892
1 1893
1 1894
1 1895
1 1896
1 1897
1 1898
1 1899
1 1900
1 1901
1 1902
1 1903
1 1904
1 1905
1 1906
1 1907
1 1908
1 1909
1 1910
1 1911
1 1912
1 1913
1 1914
1 1915
1 1916
1 1917
1 1918
1 1919
1 1920
1 1921
1 1922
1 1923
1 1924
1 1925
1 1926
1 1927
1 1928
1 1929
1 1930
1 1931
1 1932
1 1933
1 1934
1 1935
1 1936
1 1937
1 1938
1 1939
1 1940
1 1941
1 1942
1 1943
1 1944
1 1945
1 1946
1 1947
1 1948
1 1949
1 1950
1 1951
1 1952
1 1953
1 1954
1 1955
1 1956
1 1957
1 1958
1 1959
1 1960
1 1961
1 1962
1 1963
1 1964
1 1965
1 1966
1 1967
1 1968
1 1969
1 1970
1 1971
1 1972
1 1973
1 1974
1 1975
1 1976
1 1977
1 1978
1 1979
1 1980
1 1981
1 1982
1 1983
1 1984
1 1985
1 1986
1 1987
1 1988
1 1989
1 1990
1 1991
1 1992
1 1993
1 1994
1 1995
1 1996
1 1997
1 1998
1 1999
1 2000
1 2001
1 2002
1 2003
1 2004
1 2005
1 2006
1 2007
1 2008
1 2009
1 2010
1 2011
1 2012
1 2013
1 2014
1 2015
1 2016
1 2017
1 2018
1 2019
1 2020
1 2021
1 2022
1 2023
1 2024
1 2025
1 2026
1 2027
1 2028
1 2029
1 2030
1 2031
1 2032
1 2033
1 2034
1 2035
1 2036
1 2037
1 2038
1 2039
1 2040
1 2041
1 2042
1 2043
1 2044
1 2045
1 2046
1 2047
1 2048
1 2049
1 2050
1 2051
1 2052
1 2053
1 2054
1 2055
1 2056
1 2057
1 2058
1 2059
1 2060
1 2061
1 2062
1 2063
1 2064
1 2065
1 2066
1 2067
1 2068
1 2069
1 2070
1 2071
1 2072
1 2073
1 2074
1 2075
1 2076
1 2077
1 2078
1 2079
1 2080
1 2081
1 2082
1 2083
1 2084
1 2085
1 2086
1 2087
1 2088
1 2089
1 2090
1 2091
1 2092
1 2093
1 2094
1 2095
1 2096
1 2097
1 2098
1 2099
1 2100
1 2101
1 2102
1 2103
1 2104
1 2105
1 2106
1 2107
1 2108
1 2109
1 2110
1 2111
1 2112
1 2113
1 2114
1 2115
1 2116
1 2117
1 2118
1 2119
1 2120
1 2121
1 2122
1 2123
1 2124
1 2125
1 2126
1 2127
1 2128
1 2129
1 2130
1 2131
1 2132
1 2133
1 2134
1 2135
1 2136
1 2137
1 2138
1 2139
1 2140
1 2141
1 2142
1 2143
1 2144
1 2145
1 2146
1 2147
1 2148
1 2149
1 2150
1 2151
1 2152
1 2153
1 2154
1 2155
1 2156
1 2157
1 2158
1 2159
1 2160
1 2161
1 2162
1 2163
1 2164
1 2165
1 2166
1 2167
1 2168
1 2169
1 2170
1 2171
1 2172
1 2173
1 2174
1 2175
1 2176
1 2177
1 2178
1 2179
1 2180
1 2181
1 2182
1 2183
1 2184
1 2185
1 2186
1 2187
1 2188
1 2189
1 2190
1 2191
1 2192
1 2193
1 2194
1 2195
1 2196
1 2197
1 2198
1 2199
1 2200
1 2201
1 2202
1 2203
1 2204
1 2205
1 2206
1 2207
1 2208
1 2209
1 2210
1 2211
1 2212
1 2213
1 2214
1 2215
1 2216
1 2217
1 2218
1 2219
1 2220
1 2221
1 2222
1 2223
1 2224
1 2225
1 2226
1 2227
1 2228
1 2229
1 2230
1 2231
1 2232
1 2233
1 2234
1 2235
1 2236
1 2237
1 2238
1 2239
1 2240
1 2241
1 2242
1 2243
1 2244
1 2245
1 2246
1 2247
1 2248
1 2249
1 2250
1 2251
1 2252
1 2253
1 2254
1 2255
1 2256
1 2257
1 2258
1 2259
1 2260
1 2261
1 2262
1 2263
1 2264
1 2265
1 2266
1 2267
1 2268
1 2269
1 2270
1 2271
1 2272
1 2273
1 2274
1 2275
1 2276
1 2277
1 2278
1 2279
1 2280
1 2281
1 2282
1 2283
1 2284
1 2285
1 2286
1 2287
1 2288
1 2289
1 2290
1 2291
1 2292
1 2293
1 2294
1 2295
1 2296
1 2297
1 2298
1 2299
1 2300
1 2301
1 2302
1 2303
1 2304
1 2305
1 2306
1 2307
1 2308
1 2309
1 2310
1 2311
1 2312
1 2313
1 2314
1 2315
1 2316
1 2317
1 2318
1 2319
1 2320
1 2321
1 2322
1 2323
1 2324
1 2325
1 2326
1 2327
1 2328
1 2329
1 2330
1 2331
1 2332
1 2333
1 2334
1 2335
1 2336
1 2337
1 2338
1 2339
1 2340
1 2341
1 2342
1 2343
1 2344
1 2345
1 2346
1 2347
1 2348
1 2349
1 2350
1 2351
1 2352
1 2353
1 2354
1 2355
1 2356
1 2357
1 2358
1 2359
1 2360
1 2361
1 2362
1 2363
1 2364
1 2365
1 2366
1 2367
1 2368
1 2369
1 2370
1 2371
1 2372
1 2373
1 2374
1 2375
1 2376
1 2377
1 2378
1 2379
1 2380
1 2381
1 2382
1 2383
1 2384
1 2385
1 2386
1 2387
1 2388
1 2389
1 2390
1 2391
1 2392
1 2393
1 2394
1 2395
1 2396
1 2397
1 2398
1 2399
1 2400
1 2401
1 2402
1 2403
1 2404
1 2405
1 2406
1 2407
1 2408
1 2409
1 2410
1 2411
1 2412
1 2413
1 2414
1 2415
1 2416
1 2417
1 2418
1 2419
1 2420
1 2421
1 2422
1 2423
1 2424
1 2425
1 2426
1 2427
1 2428
1 2429
1 2430
1 2431
1 2432
1 2433
1 2434
1 2435
1 2436
1 2437
1 2438
1 2439
1 2440
1 2441
1 2442
1 2443
1 2444
1 2445
1 2446
1 2447
1 2448
1 2449
1 2450
1 2451
1 2452
1 2453
1 2454
1 2455
1 2456
1 2457
1 2458
1 2459
1 2460
1 2461
1 2462
1 2463
1 2464
1 2465
1 2466
1 2467
1 2468
1 2469
1 2470
1 2471
1 2472
1 2473
1 2474
1 2475
1 2476
1 2477
1 2478
1 2479
1 2480
1 2481
1 2482
1 2483
1 2484
1 2485
1 2486
1 2487
1 2488
1 2489
1 2490
1 2491
1 2492
1 2493
1 2494
1 2495
1 2496
1 2497
1 2498
1 2499
1 2500
1 2501
1 2502
1 2503
1 2504
1 2505
1 2506
1 2507
1 2508
1 2509
1 2510
1 2511
1 2512
1 2513
1 2514
1 2515
1 2516
1 2517
1 2518
1 2519
1 2520
1 2521
1 2522
1 2523
1 2524
1 2525
1 2526
1 2527
1 2528
1 2529
1 2530
1 2531
1 2532
1 2533
1 2534
1 2535
1 2536
1 2537
1 2538
1 2539
1 2540
1 2541
1 2542
1 2543
1 2544
1 2545
1 2546
1 2547
1 2548
1 2549
1 2550
1 2551
1 2552
1 2553
1 2554
1 2555
1 2556
1 2557
1 2558
1 2559
1 2560
1 2561
1 2562
1 2563
1 2564
1 2565
1 2566
1 2567
1 2568
1 2569
1 2570
1 2571
1 2572
1 2573
1 2574
1 2575
1 2576
1 2577
1 2578
1 2579
1 2580
1 2581
1 2582
1 2583
1 2584
1 2585
1 2586
1 2587
1 2588
1 2589
1 2590
1 2591
1 2592
1 2593
1 2594
1 2595
1 2596
1 2597
1 2598
1 2599
1 2600
1 2601
1 2602
1 2603
1 2604
1 2605
1 2606
1 2607
1 2608
1 2609
1 2610
1 2611
1 2612
1 2613
1 2614
1 2615
1 2616
1 2617
1 2618
1 2619
1 2620
1 2621
1 2622
1 2623
1 2624
1 2625
1 2626
1 2627
1 2628
1 2629
1 2630
1 2631
1 2632
1 2633
1 2634
1 2635
1 2636
1 2637
1 2638
1 2639
1 2640
1 2641
1 2642
1 2643
1 2644
1 2645
1 2646
1 2647
1 2648
1 2649
1 2650
1 2651
1 2652
1 2653
1 2654
1 2655
1 2656
1 2657
1 2658
1 2659
1 2660
1 2661
1 2662
1 2663
1 2664
1 2665
1 2666
1 2667
1 2668
1 2669
1 2670
1 2671
1 2672
1 2673
1 2674
1 2675
1 2676
1 2677
1 2678
1 2679
1 2680
1 2681
1 2682
1 2683
1 2684
1 2685
1 2686
1 2687
1 2688
1 2689
1 2690
1 2691
1 2692
1 2693
1 2694
1 2695
1 2696
1 2697
1 2698
1 2699
1 2700
1 2701
1 2702
1 2703
1 2704
1 2705
1 2706
1 2707
1 2708
1 2709
1 2710
1 2711
1 2712
1 2713
1 2714
1 2715
1 2716
1 2717
1 2718
1 2719
1 2720
1 2721
1 2722
1 2723
1 2724
1 2725
1 2726
1 2727
1 2728
1 2729
1 2730
1 2731
1 2732
1 2733
1 2734
1 2735
1 2736
1 2737
1 2738
1 2739
1 2740
1 2741
1 2742
1 2743
1 2744
1 2745
1 2746
1 2747
1 2748
1 2749
1 2750
1 2751
1 2752
1 2753
1 2754
1 2755
1 2756
1 2757
1 2758
1 2759
1 2760
1 2761
1 2762
1 2763
1 2764
1 2765
1 2766
1 2767
1 2768
1 2769
1 2770
1 2771
1 2772
1 2773
1 2774
1 2775
1 2776
1 2777
1 2778
1 2779
1 2780
1 2781
1 2782
1 2783
1 2784
1 2785
1 2786
1 2787
1 2788
1 2789
1 2790
1 2791
1 2792
1 2793
1 2794
1 2795
1 2796
1 2797
1 2798
1 2799
1 2800
1 2801
1 2802
1 2803
1 2804
1 2805
1 2806
1 2807
1 2808
1 2809
1 2810
1 2811
1 2812
1 2813
1 2814
1 2815
1 2816
1 2817
1 2818
1 2819
1 2820
1 2821
1 2822
1 2823
1 2824
1 2825
1 2826
1 2827
1 2828
1 2829
1 2830
1 2831
1 2832
1 2833
1 2834
1 2835
1 2836
1 2837
1 2838
1 2839
1 2840
1 2841
1 2842
1 2843
1 2844
1 2845
1 2846
1 2847
1 2848
1 2849
1 2850
1 2851
1 2852
1 2853
1 2854
1 2855
1 2856
1 2857
1 2858
1 2859
1 2860
1 2861
1 2862
1 2863
1 2864
1 2865
1 2866
1 2867
1 2868
1 2869
1 2870
1 2871
1 2872
1 2873
1 2874
1 2875
1 2876
1 2877
1 2878
1 2879
1 2880
1 2881
1 2882
1 2883
1 2884
1 2885
1 2886
1 2887
1 2888
1 2889
1 2890
1 2891
1 2892
1 2893
1 2894
1 2895
1 2896
1 2897
1 2898
1 2899
1 2900
1 2901
1 2902
1 2903
1 2904
1 2905
1 2906
1 2907
1 2908
1 2909
1 2910
1 2911
1 2912
1 2913
1 2914
1 2915
1 2916
1 2917
1 2918
1 2919
1 2920
1 2921
1 2922
1 2923
1 2924
1 2925
1 2926
1 2927
1 2928
1 2929
1 2930
1 2931
1 2932
1 2933
1 2934
1 2935
1 2936
1 2937
1 2938
1 2939
1 2940
1 2941
1 2942
1 2943
1 2944
1 2945
1 2946
1 2947
1 2948
1 2949
1 2950
1 2951
1 2952
1 2953
1 2954
1 2955
1 2956
1 2957
1 2958
1 2959
1 2960
1 2961
1 2962
1 2963
1 2964
1 2965
1 2966
1 2967
1 2968
1 2969
1 2970
1 2971
1 2972
1 2973
1 2974
1 2975
1 2976
1 2977
1 2978
1 2979
1 2980
1 2981
1 2982
1 2983
1 2984
1 2985
1 2986
1 2987
1 2988
1 2989
1 2990
1 2991
1 2992
1 2993
1 2994
1 2995
1 2996
1 2997
1 2998
1 2999
1 3000
1 3001
1 3002
1 3003
1 3004
1 3005
1 3006
1 3007
1 3008
1 3009
1 3010
1 3011
1 3012
1 3013
1 3014
1 3015
1 3016
1 3017
1 3018
1 3019
1 3020
1 3021
1 3022
1 3023
1 3024
1 3025
1 3026
1 3027
1 3028
1 3029
1 3030
1 3031
1 3032
1 3033
1 3034
1 3035
1 3036
1 3037
1 3038
1 3039
1 3040
1 3041
1 3042
1 3043
1 3044
1 3045
1 3046
1 3047
1 3048
1 3049
1 3050
1 3051
1 3052
1 3053
1 3054
1 3055
1 3056
1 3057
1 3058
1 3059
1 3060
1 3061
1 3062
1 3063
1 3064
1 3065
1 3066
1 3067
1 3068
1 3069
1 3070
1 3071
1 3072
1 3073
1 3074
1 3075
1 3076
1 3077
1 3078
1 3079
1 3080
1 3081
1 3082
1 3083
1 3084
1 3085
1 3086
1 3087
1 3088
1 3089
1 3090
1 3091
1 3092
1 3093
1 3094
1 3095
1 3096
1 3097
1 3098
1 3099
1 3100
1 3101
1 3102
1 3103
1 3104
1 3105
1 3106
1 3107
1 3108
1 3109
1 3110
1 3111
1 3112
1 3113
1 3114
1 3115
1 3116
1 3117
1 3118
1 3119
1 3120
1 3121
1 3122
1 3123
1 3124
1 3125
1 3126
1 3127
1 3128
1 3129
1 3130
1 3131
1 3132
1 3133
1 3134
1 3135
1 3136
1 3137
1 3138
1 3139
1 3140
1 3141
1 3142
1 3143
1 3144
1 3145
1 3146
1 3147
1 3148
1 3149
1 3150
1 3151
1 3152
1 3153
1 3154
1 3155
1 3156
1 3157
1 3158
1 3159
1 3160
1 3161
1 3162
1 3163
1 3164
1 3165
1 3166
1 3167
1 3168
1 3169
1 3170
1 3171
1 3172
1 3173
1 3174
1 3175
1 3176
1 3177
1 3178
1 3179
1 3180
1 3181
1 3182
1 3183
1 3184
1 3185
1 3186
1 3187
1 3188
1 3189
1 3190
1 3191
1 3192
1 3193
1 3194
1 3195
1 3196
1 3197
1 3198
1 3199
1 3200
1 3201
1 3202
1 3203
1 3204
1 3205
1 3206
1 3207
1 3208
1 3209
1 3210
1 3211
1 3212
1 3213
1 3214
1 3215
1 3216
1 3217
1 3218
1 3219
1 3220
1 3221
1 3222
1 3223
1 3224
1 3225
1 3226
1 3227
1 3228
1 3229
1 3230
1 3231
1 3232
1 3233
1 3234
1 3235
1 3236
1 3237
1 3238
1 3239
1 3240
1 3241
1 3242
1 3243
1 3244
1 3245
1 3246
1 3247
1 3248
1 3249
1 3250
1 3251
1 3252
1 3253
1 3254
1 3255
1 3256
1 3257
1 3258
1 3259
1 3260
1 3261
1 3262
1 3263
1 3264
1 3265
1 3266
1 3267
1 3268
1 3269
1 3270
1 3271
1 3272
1 3273
1 3274
1 3275
1 3276
1 3277
1 3278
1 3279
1 3280
1 3281
1 3282
1 3283
1 3284
1 3285
1 3286
1 3287
1 3288
1 3289
1 3290
1 3291
1 3292
1 3293
1 3294
1 3295
1 3296
1 3297
1 3298
1 3299
1 3300
1 3301
1 3302
1 3303
1 3304
1 3305
1 3306
1 3307
1 3308
1 3309
1 3310
1 3311
1 3312
1 3313
1 3314
1 3315
1 3316
1 3317
1 3318
1 3319
1 3320
1 3321
1 3322
1 3323
1 3324
1 3325
1 3326
1 3327
1 3328
1 3329
1 3330
1 3331
1 3332
1 3333
1 3334
1 3335
1 3336
1 3337
1 3338
1 3339
1 3340
1 3341
1 3342
1 3343
1 3344
1 3345
1 3346
1 3347
1 3348
1 3349
1 3350
1 3351
1 3352
1 3353
1 3354
1 3355
1 3356
1 3357
1 3358
1 3359
1 3360
1 3361
1 3362
1 3363
1 3364
1 3365
1 3366
1 3367
1 3368
1 3369
1 3370
1 3371
1 3372
1 3373
1 3374
1 3375
1 3376
1 3377
1 3378
1 3379
1 3380
1 3381
1 3382
1 3383
1 3384
1 3385
1 3386
1 3387
1 3388
1 3389
1 3390
1 3391
1 3392
1 3393
1 3394
1 3395
1 3396
1 3397
1 3398
1 3399
1 3400
1 3401
1 3402
1 3403
1 3404
1 3405
1 3406
1 3407
1 3408
1 3409
1 3410
1 3411
1 3412
1 3413
1 3414
1 3415
1 3416
1 3417
1 3418
1 3419
1 3420
1 3421
1 3422
1 3423
1 3424
1 3425
1 3426
1 3427
1 3428
1 3429
1 3430
1 3431
1 3432
1 3433
1 3434
1 3435
1 3436
1 3437
1 3438
1 3439
1 3440
1 3441
1 3442
1 3443
1 3444
1 3445
1 3446
1 3447
1 3448
1 3449
1 3450
1 3451
1 3452
1 3453
1 3454
1 3455
1 3456
1 3457
1 3458
1 3459
1 3460
1 3461
1 3462
1 3463
1 3464
1 3465
1 3466
1 3467
1 3468
1 3469
1 3470
1 3471
1 3472
1 3473
1 3474
1 3475
1 3476
1 3477
1 3478
1 3479
1 3480
1 3481
1 3482
1 3483
1 3484
1 3485
1 3486
1 3487
1 3488
1 3489
1 3490
1 3491
1 3492
1 3493
1 3494
1 3495
1 3496
1 3497
1 3498
1 3499
1 3500
1 3501
1 3502
1 3503
1 3504
1 3505
1 3506
1 3507
1 3508
1 3509
1 3510
1 3511
1 3512
1 3513
1 3514
1 3515
1 3516
1 3517
1 3518
1 3519
1 3520
1 3521
1 3522
1 3523
1 3524
1 3525
1 3526
1 3527
1 3528
1 3529
1 3530
1 3531
1 3532
1 3533
1 3534
1 3535
1 3536
1 3537
1 3538
1 3539
1 3540
1 3541
1 3542
1 3543
1 3544
1 3545
1 3546
1 3547
1 3548
1 3549
1 3550
1 3551
1 3552
1 3553
1 3554
1 3555
1 3556
1 3557
1 3558
1 3559
1 3560
1 3561
1 3562
1 3563
1 3564
1 3565
1 3566
1 3567
1 3568
1 3569
1 3570
1 3571
1 3572
1 3573
1 3574
1 3575
1 3576
1 3577
1 3578
1 3579
1 3580
1 3581
1 3582
1 3583
1 3584
1 3585
1 3586
1 3587
1 3588
1 3589
1 3590
1 3591
1 3592
1 3593
1 3594
1 3595
1 3596
1 3597
1 3598
1 3599
1 3600
1 3601
1 3602
1 3603
1 3604
1 3605
1 3606
1 3607
1 3608
1 3609
1 3610
1 3611
1 3612
1 3613
1 3614
1 3615
1 3616
1 3617
1 3618
1 3619
1 3620
1 3621
1 3622
1 3623
1 3624
1 3625
1 3626
1 3627
1 3628
1 3629
1 3630
1 3631
1 3632
1 3633
1 3634
1 3635
1 3636
1 3637
1 3638
1 3639
1 3640
1 3641
1 3642
1 3643
1 3644
1 3645
1 3646
1 3647
1 3648
1 3649
1 3650
1 3651
1 3652
1 3653
1 3654
1 3655
1 3656
1 3657
1 3658
1 3659
1 3660
1 3661
1 3662
1 3663
1 3664
1 3665
1 3666
1 3667
1 3668
1 3669
1 3670
1 3671
1 3672
1 3673
1 3674
1 3675
1 3676
1 3677
1 3678
1 3679
1 3680
1 3681
1 3682
1 3683
1 3684
1 3685
1 3686
1 3687
1 3688
1 3689
1 3690
1 3691
1 3692
1 3693
1 3694
1 3695
1 3696
1 3697
1 3698
1 3699
1 3700
1 3701
1 3702
1 3703
1 3704
1 3705
1 3706
1 3707
1 3708
1 3709
1 3710
1 3711
1 3712
1 3713
1 3714
1 3715
1 3716
1 3717
1 3718
1 3719
1 3720
1 3721
1 3722
1 3723
1 3724
1 3725
1 3726
1 3727
1 3728
1 3729
1 3730
1 3731
1 3732
1 3733
1 3734
1 3735
1 3736
1 3737
1 3738
1 3739
1 3740
1 3741
1 3742
1 3743
1 3744
1 3745
1 3746
1 3747
1 3748
1 3749
1 3750
1 3751
1 3752
1 3753
1 3754
1 3755
1 3756
1 3757
1 3758
1 3759
1 3760
1 3761
1 3762
1 3763
1 3764
1 3765
1 3766
1 3767
1 3768
1 3769
1 3770
1 3771
1 3772
1 3773
1 3774
1 3775
1 3776
1 3777
1 3778
1 3779
1 3780
1 3781
1 3782
1 3783
1 3784
1 3785
1 3786
1 3787
1 3788
1 3789
1 3790
1 3791
1 3792
1 3793
1 3794
1 3795
1 3796
1 3797
1 3798
1 3799
1 3800
1 3801
1 3802
1 3803
1 3804
1 3805
1 3806
1 3807
1 3808
1 3809
1 3810
1 3811
1 3812
1 3813
1 3814
1 3815
1 3816
1 3817
1 3818
1 3819
1 3820
1 3821
1 3822
1 3823
1 3824
1 3825
1 3826
1 3827
1 3828
1 3829
1 3830
1 3831
1 3832
1 3833
1 3834
1 3835
1 3836
1 3837
1 3838
1 3839
1 3840
1 3841
1 3842
1 3843
1 3844
1 3845
1 3846
1 3847
1 3848
1 3849
1 3850
1 3851
1 3852
1 3853
1 3854
1 3855
1 3856
1 3857
1 3858
1 3859
1 3860
1 3861
1 3862
1 3863
1 3864
1 3865
1 3866
1 3867
1 3868
1 3869
1 3870
1 3871
1 3872
1 3873
1 3874
1 3875
1 3876
1 3877
1 3878
1 3879
1 3880
1 3881
1 3882
1 3883
1 3884
1 3885
1 3886
1 3887
1 3888
1 3889
1 3890
1 3891
1 3892
1 3893
1 3894
1 3895
1 3896
1 3897
1 3898
1 3899
1 3900
1 3901
1 3902
1 3903
1 3904
1 3905
1 3906
1 3907
1 3908
1 3909
1 3910
1 3911
1 3912
1 3913
1 3914
1 3915
1 3916
1 3917
1 3918
1 3919
1 3920
1 3921
1 3922
1 3923
1 3924
1 3925
1 3926
1 3927
1 3928
1 3929
1 3930
1 3931
1 3932
1 3933
1 3934
1 3935
1 3936
1 3937
1 3938
1 3939
1 3940
1 3941
1 3942
1 3943
1 3944
1 3945
1 3946
1 3947
1 3948
1 3949
1 3950
1 3951
1 3952
1 3953
1 3954
1 3955
1 3956
1 3957
1 3958
1 3959
1 3960
1 3961
1 3962
1 3963
1 3964
1 3965
1 3966
1 3967
1 3968
1 3969
1 3970
1 3971
1 3972
1 3973
1 3974
1 3975
1 3976
1 3977
1 3978
1 3979
1 3980
1 3981
1 3982
1 3983
1 3984
1 3985
1 3986
1 3987
1 3988
1 3989
1 3990
1 3991
1 3992
1 3993
1 3994
1 3995
1 3996
1 3997
1 3998
1 3999
1 4000
1 4001
1 4002
1 4003
1 4004
1 4005
1 4006
1 4007
1 4008
1 4009
1 4010
1 4011
1 4012
1 4013
1 4014
1 4015
1 4016
1 4017
1 4018
1 4019
1 4020
1 4021
1 4022
1 4023
1 4024
1 4025
1 4026
1 4027
1 4028
1 4029
1 4030
1 4031
1 4032
1 4033
1 4034
1 4035
1 4036
1 4037
1 4038
1 4039
1 4040
1 4041
1 4042
1 4043
1 4044
1 4045
1 4046
1 4047
1 4048
1 4049
1 4050
1 4051
1 4052
1 4053
1 4054
1 4055
1 4056
1 4057
1 4058
1 4059
1 4060
1 4061
1 4062
1 4063
1 4064
1 4065
1 4066
1 4067
1 4068
1 4069
1 4070
1 4071
1 4072
1 4073
1 4074
1 4075
1 4076
1 4077
1 4078
1 4079
1 4080
1 4081
1 4082
1 4083
1 4084
1 4085
1 4086
1 4087
1 4088
1 4089
1 4090
1 4091
1 4092
1 4093
1 4094
1 4095
1 4096
1 4097
1 4098
1 4099
1 4100
1 4101
1 4102
1 4103
1 4104
1 4105
1 4106
1 4107
1 4108
1 4109
1 4110
1 4111
1 4112
1 4113
1 4114
1 4115
1 4116
1 4117
1 4118
1 4119
1 4120
1 4121
1 4122
1 4123
1 4124
1 4125
1 4126
1 4127
1 4128
1 4129
1 4130
1 4131
1 4132
1 4133
1 4134
1 4135
1 4136
1 4137
1 4138
1 4139
1 4140
1 4141
1 4142
1 4143
1 4144
1 4145
1 4146
1 4147
1 4148
1 4149
1 4150
1 4151
1 4152
1 4153
1 4154
1 4155
1 4156
1 4157
1 4158
1 4159
1 4160
1 4161
1 4162
1 4163
1 4164
1 4165
1 4166
1 4167
1 4168
1 4169
1 4170
1 4171
1 4172
1 4173
1 4174
1 4175
1 4176
1 4177
1 4178
1 4179
1 4180
1 4181
1 4182
1 4183
1 4184
1 4185
1 4186
1 4187
1 4188
1 4189
1 4190
1 4191
1 4192
1 4193
1 4194
1 4195
1 4196
1 4197
1 4198
1 4199
1 4200
1 4201
1 4202
1 4203
1 4204
1 4205
1 4206
1 4207
1 4208
1 4209
1 4210
1 4211
1 4212
1 4213
1 4214
1 4215
1 4216
1 4217
1 4218
1 4219
1 4220
1 4221
1 4222
1 4223
1 4224
1 4225
1 4226
1 4227
1 4228
1 4229
1 4230
1 4231
1 4232
1 4233
1 4234
1 4235
1 4236
1 4237
1 4238
1 4239
1 4240
1 4241
1 4242
1 4243
1 4244
1 4245
1 4246
1 4247
1 4248
1 4249
1 4250
1 4251
1 4252
1 4253
1 4254
1 4255
1 4256
1 4257
1 4258
1 4259
1 4260
1 4261
1 4262
1 4263
1 4264
1 4265
1 4266
1 4267
1 4268
1 4269
1 4270
1 4271
1 4272
1 4273
1 4274
1 4275
1 4276
1 4277
1 4278
1 4279
1 4280
1 4281
1 4282
1 4283
1 4284
1 4285
1 4286
1 4287
1 4288
1 4289
1 4290
1 4291
1 4292
1 4293
1 4294
1 4295
1 4296
1 4297
1 4298
1 4299
1 4300
1 4301
1 4302
1 4303
1 4304
1 4305
1 4306
1 4307
1 4308
1 4309
1 4310
1 4311
1 4312
1 4313
1 4314
1 4315
1 4316
1 4317
1 4318
1 4319
1 4320
1 4321
1 4322
1 4323
1 4324
1 4325
1 4326
1 4327
1 4328
1 4329
1 4330
1 4331
1 4332
1 4333
1 4334
1 4335
1 4336
1 4337
1 4338
1 4339
1 4340
1 4341
1 4342
1 4343
1 4344
1 4345
1 4346
1 4347
1 4348
1 4349
1 4350
1 4351
1 4352
1 4353
1 4354
1 4355
1 4356
1 4357
1 4358
1 4359
1 4360
1 4361
1 4362
1 4363
1 4364
1 4365
1 4366
1 4367
1 4368
1 4369
1 4370
1 4371
1 4372
1 4373
1 4374
1 4375
1 4376
1 4377
1 4378
1 4379
1 4380
1 4381
1 4382
1 4383
1 4384
1 4385
1 4386
1 4387
1 4388
1 4389
1 4390
1 4391
1 4392
1 4393
1 4394
1 4395
1 4396
1 4397
1 4398
1 4399
1 4400
1 4401
1 4402
1 4403
1 4404
1 4405
1 4406
1 4407
1 4408
1 4409
1 4410
1 4411
1 4412
1 4413
1 4414
1 4415
1 4416
1 4417
1 4418
1 4419
1 4420
1 4421
1 4422
1 4423
1 4424
1 4425
1 4426
1 4427
1 4428
1 4429
1 4430
1 4431
1 4432
1 4433
1 4434
1 4435
1 4436
1 4437
1 4438
1 4439
1 4440
1 4441
1 4442
1 4443
1 4444
1 4445
1 4446
1 4447
1 4448
1 4449
1 4450
1 4451
1 4452
1 4453
1 4454
1 4455
1 4456
1 4457
1 4458
1 4459
1 4460
1 4461
1 4462
1 4463
1 4464
1 4465
1 4466
1 4467
1 4468
1 4469
1 4470
1 4471
1 4472
1 4473
1 4474
1 4475
1 4476
1 4477
1 4478
1 4479
1 4480
1 4481
1 4482
1 4483
1 4484
1 4485
1 4486
1 4487
1 4488
1 4489
1 4490
1 4491
1 4492
1 4493
1 4494
1 4495
1 4496
1 4497
1 4498
1 4499
1 4500
1 4501
1 4502
1 4503
1 4504
1 4505
1 4506
1 4507
1 4508
1 4509
1 4510
1 4511
1 4512
1 4513
1 4514
1 4515
1 4516
1 4517
1 4518
1 4519
1 4520
1 4521
1 4522
1 4523
1 4524
1 4525
1 4526
1 4527
1 4528
1 4529
1 4530
1 4531
1 4532
1 4533
1 4534
1 4535
1 4536
1 4537
1 4538
1 4539
1 4540
1 4541
1 4542
1 4543
1 4544
1 4545
1 4546
1 4547
1 4548
1 4549
1 4550
1 4551
1 4552
1 4553
1 4554
1 4555
1 4556
1 4557
1 4558
1 4559
1 4560
1 4561
1 4562
1 4563
1 4564
1 4565
1 4566
1 4567
1 4568
1 4569
1 4570
1 4571
1 4572
1 4573
1 4574
1 4575
1 4576
1 4577
1 4578
1 4579
1 4580
1 4581
1 4582
1 4583
1 4584
1 4585
1 4586
1 4587
1 4588
1 4589
1 4590
1 4591
1 4592
1 4593
1 4594
1 4595
1 4596
1 4597
1 4598
1 4599
1 4600
1 4601
1 4602
1 4603
1 4604
1 4605
1 4606
1 4607
1 4608
1 4609
1 4610
1 4611
1 4612
1 4613
1 4614
1 4615
1 4616
1 4617
1 4618
1 4619
1 4620
1 4621
1 4622
1 4623
1 4624
1 4625
1 4626
1 4627
1 4628
1 4629
1 4630
1 4631
1 4632
1 4633
1 4634
1 4635
1 4636
1 4637
1 4638
1 4639
1 4640
1 4641
1 4642
1 4643
1 4644
1 4645
1 4646
1 4647
1 4648
1 4649
1 4650
1 4651
1 4652
1 4653
1 4654
1 4655
1 4656
1 4657
1 4658
1 4659
1 4660
1 4661
1 4662
1 4663
1 4664
1 4665
1 4666
1 4667
1 4668
1 4669
1 4670
1 4671
1 4672
1 4673
1 4674
1 4675
1 4676
1 4677
1 4678
1 4679
1 4680
1 4681
1 4682
1 4683
1 4684
1 4685
1 4686
1 4687
1 4688
1 4689
1 4690
1 4691
1 4692
1 4693
1 4694
1 4695
1 4696
1 4697
1 4698
1 4699
1 4700
1 4701
1 4702
1 4703
1 4704
1 4705
1 4706
1 4707
1 4708
1 4709
1 4710
1 4711
1 4712
1 4713
1 4714
1 4715
1 4716
1 4717
1 4718
1 4719
1 4720
1 4721
1 4722
1 4723
1 4724
1 4725
1 4726
1 4727
1 4728
1 4729
1 4730
1 4731
1 4732
1 4733
1 4734
1 4735
1 4736
1 4737
1 4738
1 4739
1 4740
1 4741
1 4742
1 4743
1 4744
1 4745
1 4746
1 4747
1 4748
1 4749
1 4750
1 4751
1 4752
1 4753
1 4754
1 4755
1 4756
1 4757
1 4758
1 4759
1 4760
1 4761
1 4762
1 4763
1 4764
1 4765
1 4766
1 4767
1 4768
1 4769
1 4770
1 4771
1 4772
1 4773
1 4774
1 4775
1 4776
1 4777
1 4778
1 4779
1 4780
1 4781
1 4782
1 4783
1 4784
1 4785
1 4786
1 4787
1 4788
1 4789
1 4790
1 4791
1 4792
1 4793
1 4794
1 4795
1 4796
1 4797
1 4798
1 4799
1 4800
1 4801
1 4802
1 4803
1 4804
1 4805
1 4806
1 4807
1 4808
1 4809
1 4810
1 4811
1 4812
1 4813
1 4814
1 4815
1 4816
1 4817
1 4818
1 4819
1 4820
1 4821
1 4822
1 4823
1 4824
1 4825
1 4826
1 4827
1 4828
1 4829
1 4830
1 4831
1 4832
1 4833
1 4834
1 4835
1 4836
1 4837
1 4838
1 4839
1 4840
1 4841
1 4842
1 4843
1 4844
1 4845
1 4846
1 4847
1 4848
1 4849
1 4850
1 4851
1 4852
1 4853
1 4854
1 4855
1 4856
1 4857
1 4858
1 4859
1 4860
1 4861
1 4862
1 4863
1 4864
1 4865
1 4866
1 4867
1 4868
1 4869
1 4870
1 4871
1 4872
1 4873
1 4874
1 4875
1 4876
1 4877
1 4878
1 4879
1 4880
1 4881
1 4882
1 4883
1 4884
1 4885
1 4886
1 4887
1 4888
1 4889
1 4890
1 4891
1 4892
1 4893
1 4894
1 4895
1 4896
1 4897
1 4898
1 4899
1 4900
1 4901
1 4902
1 4903
1 4904
1 4905
1 4906
1 4907
1 4908
1 4909
1 4910
1 4911
1 4912
1 4913
1 4914
1 4915
1 4916
1 4917
1 4918
1 4919
1 4920
1 4921
1 4922
1 4923
1 4924
1 4925
1 4926
1 4927
1 4928
1 4929
1 4930
1 4931
1 4932
1 4933
1 4934
1 4935
1 4936
1 4937
1 4938
1 4939
1 4940
1 4941
1 4942
1 4943
1 4944
1 4945
1 4946
1 4947
1 4948
1 4949
1 4950
1 4951
1 4952
1 4953
1 4954
1 4955
1 4956
1 4957
1 4958
1 4959
1 4960
1 4961
1 4962
1 4963
1 4964
1 4965
1 4966
1 4967
1 4968
1 4969
1 4970
1 4971
1 4972
1 4973
1 4974
1 4975
1 4976
1 4977
1 4978
1 4979
1 4980
1 4981
1 4982
1 4983
1 4984
1 4985
1 4986
1 4987
1 4988
1 4989
1 4990
1 4991
1 4992
1 4993
1 4994
1 4995
1 4996
1 4997
1 4998
1 4999
CELL_TYPES 5000
1 
1 
1 
1 
1 
1 
1 
1 
1 
1 
1 
1 
1 
1 
1 
1 
1 
1 
1 
1 
1 
1 
1 
1 
1 
1 
1 
1 
1 
1 
1 
1 
1 
1 
1 
1 
1 
1 
1 
1 
1 
1 
1 
1 
1 
1 
1 
1 
1 
1 
1 
1 
1 
1 
1 
1 
1 
1 
1 
1 
1 
1 
1 
1 
1 
1 
1 
1 
1 
1 
1 
1 
1 
1 
1 
1 
1 
1 
1 
1 
1 
1 
1 
1 
1 
1 
1 
1 
1 
1 
1 
1 
1 
1 
1 
1 
1 
1 
1 
1 
1 
1 
1 
1 
1 
1 
1 
1 
1 
1 
1 
1 
1 
1 
1 
1 
1 
1 
1 
1 
1 
1 
1 
1 
1 
1 
1 
1 
1 
1 
1 
1 
1 
1 
1 
1 
1 
1 
1 
1 
1 
1 
1 
1 
1 
1 
1 
1 
1 
1 
1 
1 
1 
1 
1 
1 
1 
1 
1 
1 
1 
1 
1 
1 
1 
1 
1 
1 
1 
1 
1 
1 
1 
1 
1 
1 
1 
1 
1 
1 
1 
1 
1 
1 
1 
1 
1 
1 
1 
1 
1 
1 
1 
1 
1 
1 
1 
1 
1 
1 
1 
1 
1 
1 
1 
1 
1 
1 
1 
1 
1 
1 
1 
1 
1 
1 
1 
1 
1 
1 
1 
1 
1 
1 
1 
1 
1 
1 
1 
1 
1 
1 
1 
1 
1 
1 
1 
1 
1 
1 
1 
1 
1 
1 
1 
1 
1 
1 
1 
1 
1 
1 
1 
1 
1 
1 
1 
1 
1 
1 
1 
1 
1 
1 
1 
1 
1 
1 
1 
1 
1 
1 
1 
1 
1 
1 
1 
1 
1 
1 
1 
1 
1 
1 
1 
1 
1 
1 
1 
1 
1 
1 
1 
1 
1 
1 
1 
1 
1 
1 
1 
1 
1 
1 
1 
1 
1 
1 
1 
1 
1 
1 
1 
1 
1 
1 
1 
1 
1 
1 
1 
1 
1 
1 
1 
1 
1 
1 
1 
1 
1 
1 
1 
1 
1 
1 
1 
1 
1 
1 
1 
1 
1 
1 
1 
1 
1 
1 
1 
1 
1 
1 
1 
1 
1 
1 
1 
1 
1 
1 
1 
1 
1 
1 
1 
1 
1 
1 
1 
1 
1 
1 
1 
1 
1 
1 
1 
1 
1 
1 
1 
1 
1 
1 
1 
1 
1 
1 
1 
1 
1 
1 
1 
1 
1 
1 
1 
1 
1 
1 
1 
1 
1 
1 
1 
1 
1 
1 
1 
1 
1 
1 
1 
1 
1 
1 
1 
1 
1 
1 
1 
1 
1 
1 
1 
1 
1 
1 
1 
1 
1 
1 
1 
1 
1 
1 
1 
1 
1 
1 
1 
1 
1 
1 
1 
1 
1 
1 
1 
1 
1 
1 
1 
1 
1 
1 
1 
1 
1 
1 
1 
1 
1 
1 
1 
1 
1 
1 
1 
1 
1 
1 
1 
1 
1 
1 
1 
1 
1 
1 
1 
1 
1 
1 
1 
1 
1 
1 
1 
1 
1 
1 
1 
1 
1 
1 
1 
1 
1 
1 
1 
1 
1 
1 
1 
1 
1 
1 
1 
1 
1 
1 
1 
1 
1 
1 
1 
1 
1 
1 
1 
1 
1 
1 
1 
1 
1 
1 
1 
1 
1 
1 
1 
1 
1 
1 
1 
1 
1 
1 
1 
1 
1 
1 
1 
1 
1 
1 
1 
1 
1 
1 
1 
1 
1 
1 
1 
1 
1 
1 
1 
1 
1 
1 
1 
1 
1 
1 
1 
1 
1 
1 
1 
1 
1 
1 
1 
1 
1 
1 
1 
1 
1 
1 
1 
1 
1 
1 
1 
1 
1 
1 
1 
1 
1 
1 
1 
1 
1 
1 
1 
1 
1 
1 
1 
1 
1 
1 
1 
1 
1 
1 
1 
1 
1 
1 
1 
1 
1 
1 
1 
1 
1 
1 
1 
1 
1 
1 
1 
1 
1 
1 
1 
1 
1 
1 
1 
1 
1 
1 
1 
1 
1 
1 
1 
1 
1 
1 
1 
1 
1 
1 
1 
1 
1 
1 
1 
1 
1 
1 
1 
1 
1 
1 
1 
1 
1 
1 
1 
1 
1 
1 
1 
1 
1 
1 
1 
1 
1 
1 
1 
1 
1 
1 
1 
1 
1 
1 
1 
1 
1 
1 
1 
1 
1 
1 
1 
1 
1 
1 
1 
1 
1 
1 
1 
1 
1 
1 
1 
1 
1 
1 
1 
1 
1 
1 
1 
1 
1 
1 
1 
1 
1 
1 
1 
1 
1 
1 
1 
1 
1 
1 
1 
1 
1 
1 
1 
1 
1 
1 
1 
1 
1 
1 
1 
1 
1 
1 
1 
1 
1 
1 
1 
1 
1 
1 
1 
1 
1 
1 
1 
1 
1 
1 
1 
1 
1 
1 
1 
1 
1 
1 
1 
1 
1 
1 
1 
1 
1 
1 
1 
1 
1 
1 
1 
1 
1 
1 
1 
1 
1 
1 
1 
1 
1 
1 
1 
1 
1 
1 
1 
1 
1 
1 
1 
1 
1 
1 
1 
1 
1 
1 
1 
1 
1 
1 
1 
1 
1 
1 
1 
1 
1 
1 
1 
1 
1 
1 
1 
1 
1 
1 
1 
1 
1 
1 
1 
1 
1 
1 
1 
1 
1 
1 
1 
1 
1 
1 
1 
1 
1 
1 
1 
1 
1 
1 
1 
1 
1 
1 
1 
1 
1 
1 
1 
1 
1 
1 
1 
1 
1 
1 
1 
1 
1 
1 
1 
1 
1 
1 
1 
1 
1 
1 
1 
1 
1 
1 
1 
1 
1 
1 
1 
1 
1 
1 
1 
1 
1 
1 
1 
1 
1 
1 
1 
1 
1 
1 
1 
1 
1 
1 
1 
1 
1 
1 
1 
1 
1 
1 
1 
1 
1 
1 
1 
1 
1 
1 
1 
1 
1 
1 
1 
1 
1 
1 
1 
1 
1 
1 
1 
1 
1 
1 
1 
1 
1 
1 
1 
1 
1 
1 
1 
1 
1 
1 
1 
1 
1 
1 
1 
1 
1 
1 
1 
1 
1 
1 
1 
1 
1 
1 
1 
1 
1 
1 
1 
1 
1 
1 
1 
1 
1 
1 
1 
1 
1 
1 
1 
1 
1 
1 
1 
1 
1 
1 
1 
1 
1 
1 
1 
1 
1 
1 
1 
1 
1 
1 
1 
1 
1 
1 
1 
1 
1 
1 
1 
1 
1 
1 
1 
1 
1 
1 
1 
1 
1 
1 
1 
1 
1 
1 
1 
1 
1 
1 
1 
1 
1 
1 
1 
1 
1 
1 
1 
1 
1 
1 
1 
1 
1 
1 
1 
1 
1 
1 
1 
1 
1 
1 
1 
1 
1 
1 
1 
1 
1 
1 
1 
1 
1 
1 
1 
1 
1 
1 
1 
1 
1 
1 
1 
1 
1 
1 
1 
1 
1 
1 
1 
1 
1 
1 
1 
1 
1 
1 
1 
1 
1 
1 
1 
1 
1 
1 
1 
1 
1 
1 
1 
1 
1 
1 
1 
1 
1 
1 
1 
1 
1 
1 
1 
1 
1 
1 
1 
1 
1 
1 
1 
1 
1 
1 
1 
1 
1 
1 
1 
1 
1 
1 
1 
1 
1 
1 
1 
1 
1 
1 
1 
1 
1 
1 
1 
1 
1 
1 
1 
1 
1 
1 
1 
1 
1 
1 
1 
1 
1 
1 
1 
1 
1 
1 
1 
1 
1 
1 
1 
1 
1 
1 
1 
1 
1 
1 
1 
1 
1 
1 
1 
1 
1 
1 
1 
1 
1 
1 
1 
1 
1 
1 
1 
1 
1 
1 
1 
1 
1 
1 
1 
1 
1 
1 
1 
1 
1 
1 
1 
1 
1 
1 
1 
1 
1 
1 
1 
1 
1 
1 
1 
1 
1 
1 
1 
1 
1 
1 
1 
1 
1 
1 
1 
1 
1 
1 
1 
1 
1 
1 
1 
1 
1 
1 
1 
1 
1 
1 
1 
1 
1 
1 
1 
1 
1 
1 
1 
1 
1 
1 
1 
1 
1 
1 
1 
1 
1 
1 
1 
1 
1 
1 
1 
1 
1 
1 
1 
1 
1 
1 
1 
1 
1 
1 
1 
1 
1 
1 
1 
1 
1 
1 
1 
1 
1 
1 
1 
1 
1 
1 
1 
1 
1 
1 
1 
1 
1 
1 
1 
1 
1 
1 
1 
1 
1 
1 
1 
1 
1 
1 
1 
1 
1 
1 
1 
1 
1 
1 
1 
1 
1 
1 
1 
1 
1 
1 
1 
1 
1 
1 
1 
1 
1 
1 
1 
1 
1 
1 
1 
1 
1 
1 
1 
1 
1 
1 
1 
1 
1 
1 
1 
1 
1 
1 
1 
1 
1 
1 
1 
1 
1 
1 
1 
1 
1 
1 
1 
1 
1 
1 
1 
1 
1 
1 
1 
1 
1 
1 
1 
1 
1 
1 
1 
1 
1 
1 
1 
1 
1 
1 
1 
1 
1 
1 
1 
1 
1 
1 
1 
1 
1 
1 
1 
1 
1 
1 
1 
1 
1 
1 
1 
1 
1 
1 
1 
1 
1 
1 
1 
1 
1 
1 
1 
1 
1 
1 
1 
1 
1 
1 
1 
1 
1 
1 
1 
1 
1 
1 
1 
1 
1 
1 
1 
1 
1 
1 
1 
1 
1 
1 
1 
1 
1 
1 
1 
1 
1 
1 
1 
1 
1 
1 
1 
1 
1 
1 
1 
1 
1 
1 
1 
1 
1 
1 
1 
1 
1 
1 
1 
1 
1 
1 
1 
1 
1 
1 
1 
1 
1 
1 
1 
1 
1 
1 
1 
1 
1 
1 
1 
1 
1 
1 
1 
1 
1 
1 
1 
1 
1 
1 
1 
1 
1 
1 
1 
1 
1 
1 
1 
1 
1 
1 
1 
1 
1 
1 
1 
1 
1 
1 
1 
1 
1 
1 
1 
1 
1 
1 
1 
1 
1 
1 
1 
1 
1 
1 
1 
1 
1 
1 
1 
1 
1 
1 
1 
1 
1 
1 
1 
1 
1 
1 
1 
1 
1 
1 
1 
1 
1 
1 
1 
1 
1 
1 
1 
1 
1 
1 
1 
1 
1 
1 
1 
1 
1 
1 
1 
1 
1 
1 
1 
1 
1 
1 
1 
1 
1 
1 
1 
1 
1 
1 
1 
1 
1 
1 
1 
1 
1 
1 
1 
1 
1 
1 
1 
1 
1 
1 
1 
1 
1 
1 
1 
1 
1 
1 
1 
1 
1 
1 
1 
1 
1 
1 
1 
1 
1 
1 
1 
1 
1 
1 
1 
1 
1 
1 
1 
1 
1 
1 
1 
1 
1 
1 
1 
1 
1 
1 
1 
1 
1 
1 
1 
1 
1 
1 
1 
1 
1 
1 
1 
1 
1 
1 
1 
1 
1 
1 
1 
1 
1 
1 
1 
1 
1 
1 
1 
1 
1 
1 
1 
1 
1 
1 
1 
1 
1 
1 
1 
1 
1 
1 
1 
1 
1 
1 
1 
1 
1 
1 
1 
1 
1 
1 
1 
1 
1 
1 
1 
1 
1 
1 
1 
1 
1 
1 
1 
1 
1 
1 
1 
1 
1 
1 
1 
1 
1 
1 
1 
1 
1 
1 
1 
1 
1 
1 
1 
1 
1 
1 
1 
1 
1 
1 
1 
1 
1 
1 
1 
1 
1 
1 
1 
1 
1 
1 
1 
1 
1 
1 
1 
1 
1 
1 
1 
1 
1 
1 
1 
1 
1 
1 
1 
1 
1 
1 
1 
1 
1 
1 
1 
1 
1 
1 
1 
1 
1 
1 
1 
1 
1 
1 
1 
1 
1 
1 
1 
1 
1 
1 
1 
1 
1 
1 
1 
1 
1 
1 
1 
1 
1 
1 
1 
1 
1 
1 
1 
1 
1 
1 
1 
1 
1 
1 
1 
1 
1 
1 
1 
1 
1 
1 
1 
1 
1 
1 
1 
1 
1 
1 
1 
1 
1 
1 
1 
1 
1 
1 
1 
1 
1 
1 
1 
1 
1 
1 
1 
1 
1 
1 
1 
1 
1 
1 
1 
1 
1 
1 
1 
1 
1 
1 
1 
1 
1 
1 
1 
1 
1 
1 
1 
1 
1 
1 
1 
1 
1 
1 
1 
1 
1 
1 
1 
1 
1 
1 
1 
1 
1 
1 
1 
1 
1 
1 
1 
1 
1 
1 
1 
1 
1 
1 
1 
1 
1 
1 
1 
1 
1 
1 
1 
1 
1 
1 
1 
1 
1 
1 
1 
1 
1 
1 
1 
1 
1 
1 
1 
1 
1 
1 
1 
1 
1 
1 
1 
1 
1 
1 
1 
1 
1 
1 
1 
1 
1 
1 
1 
1 
1 
1 
1 
1 
1 
1 
1 
1 
1 
1 
1 
1 
1 
1 
1 
1 
1 
1 
1 
1 
1 
1 
1 
1 
1 
1 
1 
1 
1 
1 
1 
1 
1 
1 
1 
1 
1 
1 
1 
1 
1 
1 
1 
1 
1 
1 
1 
1 
1 
1 
1 
1 
1 
1 
1 
1 
1 
1 
1 
1 
1 
1 
1 
1 
1 
1 
1 
1 
1 
1 
1 
1 
1 
1 
1 
1 
1 
1 
1 
1 
1 
1 
1 
1 
1 
1 
1 
1 
1 
1 
1 
1 
1 
1 
1 
1 
1 
1 
1 
1 
1 
1 
1 
1 
1 
1 
1 
1 
1 
1 
1 
1 
1 
1 
1 
1 
1 
1 
1 
1 
1 
1 
1 
1 
1 
1 
1 
1 
1 
1 
1 
1 
1 
1 
1 
1 
1 
1 
1 
1 
1 
1 
1 
1 
1 
1 
1 
1 
1 
1 
1 
1 
1 
1 
1 
1 
1 
1 
1 
1 
1 
1 
1 
1 
1 
1 
1 
1 
1 
1 
1 
1 
1 
1 
1 
1 
1 
1 
1 
1 
1 
1 
1 
1 
1 
1 
1 
1 
1 
1 
1 
1 
1 
1 
1 
1 
1 
1 
1 
1 
1 
1 
1 
1 
1 
1 
1 
1 
1 
1 
1 
1 
1 
1 
1 
1 
1 
1 
1 
1 
1 
1 
1 
1 
1 
1 
1 
1 
1 
1 
1 
1 
1 
1 
1 
1 
1 
1 
1 
1 
1 
1 
1 
1 
1 
1 
1 
1 
1 
1 
1 
1 
1 
1 
1 
1 
1 
1 
1 
1 
1 
1 
1 
1 
1 
1 
1 
1 
1 
1 
1 
1 
1 
1 
1 
1 
1 
1 
1 
1 
1 
1 
1 
1 
1 
1 
1 
1 
1 
1 
1 
1 
1 
1 
1 
1 
1 
1 
1 
1 
1 
1 
1 
1 
1 
1 
1 
1 
1 
1 
1 
1 
1 
1 
1 
1 
1 
1 
1 
1 
1 
1 
1 
1 
1 
1 
1 
1 
1 
1 
1 
1 
1 
1 
1 
1 
1 
1 
1 
1 
1 
1 
1 
1 
1 
1 
1 
1 
1 
1 
1 
1 
1 
1 
1 
1 
1 
1 
1 
1 
1 
1 
1 
1 
1 
1 
1 
1 
1 
1 
1 
1 
1 
1 
1 
1 
1 
1 
1 
1 
1 
1 
1 
1 
1 
1 
1 
1 
1 
1 
1 
1 
1 
1 
1 
1 
1 
1 
1 
1 
1 
1 
1 
1 
1 
1 
1 
1 
1 
1 
1 
1 
1 
1 
1 
1 
1 
1 
1 
1 
1 
1 
1 
1 
1 
1 
1 
1 
1 
1 
1 
1 
1 
1 
1 
1 
1 
1 
1 
1 
1 
1 
1 
1 
1 
1 
1 
1 
1 
1 
1 
1 
1 
1 
1 
1 
1 
1 
1 
1 
1 
1 
1 
1 
1 
1 
1 
1 
1 
1 
1 
1 
1 
1 
1 
1 
1 
1 
1 
1 
1 
1 
1 
1 
1 
1 
1 
1 
1 
1 
1 
1 
1 
1 
1 
1 
1 
1 
1 
1 
1 
1 
1 
1 
1 
1 
1 
1 
1 
1 
1 
1 
1 
1 
1 
1 
1 
1 
1 
1 
1 
1 
1 
1 
1 
1 
1 
1 
1 
1 
1 
1 
1 
1 
1 
1 
1 
1 
1 
1 
1 
1 
1 
1 
1 
1 
1 
1 
1 
1 
1 
1 
1 
1 
1 
1 
1 
1 
1 
1 
1 
1 
1 
1 
1 
1 
1 
1 
1 
1 
1 
1 
1 
1 
1 
1 
1 
1 
1 
1 
1 
1 
1 
1 
1 
1 
1 
1 
1 
1 
1 
1 
1 
1 
1 
1 
1 
1 
1 
1 
1 
1 
1 
1 
1 
1 
1 
1 
1 
1 
1 
1 
1 
1 
1 
1 
1 
1 
1 
1 
1 
1 
1 
1 
1 
1 
1 
1 
1 
1 
1 
1 
1 
1 
1 
1 
1 
1 
1 
1 
1 
1 
1 
1 
1 
1 
1 
1 
1 
1 
1 
1 
1 
1 
1 
1 
1 
1 
1 
1 
1 
1 
1 
1 
1 
1 
1 
1 
1 
1 
1 
1 
1 
1 
1 
1 
1 
1 
1 
1 
1 
1 
1 
1 
1 
1 
1 
1 
1 
1 
1 
1 
1 
1 
1 
1 
1 
1 
1 
1 
1 
1 
1 
1 
1 
1 
1 
1 
1 
1 
1 
1 
1 
1 
1 
1 
1 
1 
1 
1 
1 
1 
1 
1 
1 
1 
1 
1 
1 
1 
1 
1 
1 
1 
1 
1 
1 
1 
1 
1 
1 
1 
1 
1 
1 
1 
1 
1 
1 
1 
1 
1 
1 
1 
1 
1 
1 
1 
1 
1 
1 
1 
1 
1 
1 
1 
1 
1 
1 
1 
1 
1 
1 
1 
1 
1 
1 
1 
1 
1 
1 
1 
1 
1 
1 
1 
1 
1 
1 
1 
1 
1 
1 
1 
1 
1 
1 
1 
1 
1 
1 
1 
1 
1 
1 
1 
1 
1 
1 
1 
1 
1 
1 
1 
1 
1 
1 
1 
1 
1 
1 
1 
1 
1 
1 
1 
1 
1 
1 
1 
1 
1 
1 
1 
1 
1 
1 
1 
1 
1 
1 
1 
1 
1 
1 
1 
1 
1 
1 
1 
1 
1 
1 
1 
1 
1 
1 
1 
1 
1 
1 
1 
1 
1 
1 
1 
1 
1 
1 
1 
1 
1 
1 
1 
1 
1 
1 
1 
1 
1 
1 
1 
1 
1 
1 
1 
1 
1 
1 
1 
1 
1 
1 
1 
1 
1 
1 
1 
1 
1 
1 
1 
1 
1 
1 
1 
1 
1 
1 
1 
1 
1 
1 
1 
1 
1 
1 
1 
1 
1 
1 
1 
1 
1 
1 
1 
1 
1 
1 
1 
1 
1 
1 
1 
1 
1 
1 
1 
1 
1 
1 
1 
1 
1 
1 
1 
1 
1 
1 
1 
1 
1 
1 
1 
1 
1 
1 
1 
1 
1 
1 
1 
1 
1 
1 
1 
1 
1 
1 
1 
1 
1 
1 
1 
1 
1 
1 
1 
1 
1 
1 
1 
1 
1 
1 
1 
1 
1 
1 
1 
1 
1 
1 
1 
1 
1 
1 
1 
1 
1 
1 
1 
1 
1 
1 
1 
1 
1 
1 
1 
1 
1 
1 
1 
1 
1 
1 
1 
1 
1 
1 
1 
1 
1 
1 
1 
1 
1 
1 
1 
1 
1 
1 
1 
1 
1 
1 
1 
1 
1 
1 
1 
1 
1 
1 
1 
1 
1 
1 
1 
1 
1 
1 
1 
1 
1 
1 
1 
1 
1 
1 
1 
1 
1 
1 
1 
1 
1 
1 
1 
1 
1 
1 
1 
1 
1 
1 
1 
1 
1 
1 
1 
1 
1 
1 
1 
1 
1 
1 
1 
1 
1 
1 
1 
1 
1 
1 
1 
1 
1 
1 
1 
1 
1 
1 
1 
1 
1 
1 
1 
1 
1 
1 
1 
1 
1 
1 
1 
1 
1 
1 
1 
1 
1 
1 
1 
1 
1 
1 
1 
1 
1 
1 
1 
1 
1 
1 
1 
1 
1 
1 
1 
1 
1 
1 
1 
1 
1 
1 
1 
1 
1 
1 
1 
1 
1 
1 
1 
1 
1 
1 
1 
1 
1 
1 
1 
1 
1 
1 
1 
1 
1 
1 
1 
1 
1 
1 
1 
1 
1 
1 
1 
1 
1 
1 
1 
1 
1 
1 
1 
1 
1 
1 
1 
1 
1 
1 
1 
1 
1 
1 
1 
1 
1 
1 
1 
1 
1 
1 
1 
1 
1 
1 
1 
1 
1 
1 
1 
1 
1 
1 
1 
1 
1 
1 
1 
1 
1 
1 
1 
1 
1 
1 
1 
1 
1 
1 
1 
1 
1 
1 
1 
1 
1 
1 
1 
1 
1 
1 
1 
1 
1 
1 
1 
1 
1 
1 
1 
1 
1 
1 
1 
1 
1 
1 
1 
1 
1 
1 
1 
1 
1 
1 
1 
1 
1 
1 
1 
1 
1 
1 
1 
1 
1 
1 
1 
1 
1 
1 
1 
1 
1 
1 
1 
1 
1 
1 
1 
1 
1 
1 
1 
1 
1 
1 
1 
1 
1 
1 
1 
1 
1 
1 
1 
1 
1 
1 
1 
1 
1 
1 
1 
1 
1 
1 
1 
1 
1 
1 
1 
1 
1 
1 
1 
1 
1 
1 
1 
1 
1 
1 
1 
1 
1 
1 
1 
1 
1 
1 
1 
1 
1 
1 
1 
1 
1 
1 
1 
1 
1 
1 
1 
1 
1 
1 
1 
1 
1 
1 
1 
1 
1 
1 
1 
1 
1 
1 
1 
1 
1 
1 
1 
1 
1 
1 
1 
1 
1 
1 
1 
1 
1 
1 
1 
1 
1 
1 
1 
1 
1 
1 
1 
1 
1 
1 
1 
1 
1 
1 
1 
1 
1 
1 
1 
1 
1 
1 
1 
1 
1 
1 
1 
1 
1 
1 
1 
1 
1 
1 
1 
1 
1 
1 
1 
1 
1 
1 
1 
1 
1 
1 
1 
1 
1 
1 
1 
1 
1 
1 
1 
1 
1 
1 
1 
1 
1 
1 
1 
1 
1 
1 
1 
1 
1 
1 
1 
1 
1 
1 
1 
1 
1 
1 
1 
1 
1 
1 
1 
1 
1 
1 
1 
1 
1 
1 
1 
1 
1 
1 
1 
1 
1 
1 
1 
1 
1 
1 
1 
1 
1 
1 
1 
1 
1 
1 
1 
1 
1 
1 
1 
1 
1 
1 
1 
1 
1 
1 
1 
1 
1 
1 
1 
1 
1 
1 
1 
1 
1 
1 
1 
1 
1 
1 
1 
1 
1 
1 
1 
1 
1 
1 
1 
1 
1 
1 
1 
1 
1 
1 
1 
1 
1 
1 
1 
1 
1 
1 
1 
1 
1 
1 
1 
1 
1 
1 
1 
1 
1 
1 
1 
1 
1 
1 
1 
1 
1 
1 
1 
1 
1 
1 
1 
1 
1 
1 
1 
1 
1 
1 
1 
1 
1 
1 
1 
1 
1 
1 
1 
1 
1 
1 
1 
1 
1 
1 
1 
1 
1 
1 
1 
1 
1 
1 
1 
1 
1 
1 
1 
1 
1 
1 
1 
1 
1 
1 
1 
1 
1 
1 
1 
1 
1 
1 
1 
1 
1 
1 
1 
1 
1 
1 
1 
1 
1 
1 
1 
1 
1 
1 
1 
1 
1 
1 
1 
1 
1 
1 
1 
1 
1 
1 
1 
1 
1 
1 
1 
1 
1 
1 
1 
1 
1 
1 
1 
1 
1 
1 
1 
1 
1 
1 
1 
1 
1 
1 
1 
1 
1 
1 
1 
1 
1 
1 
1 
1 
1 
1 
1 
1 
1 
1 
1 
1 
1 
1 
1 
1 
1 
1 
1 
1 
1 
1 
1 
1 
1 
1 
1 
1 
1 
1 
1 
1 
1 
1 
1 
1 
1 
1 
1 
1 
1 
1 
1 
1 
1 
1 
1 
1 
1 
1 
1 
1 
1 
1 
1 
1 
1 
1 
1 
1 
1 
1 
1 
1 
1 
1 
1 
1 
1 
1 
1 
1 
1 
1 
1 
1 
1 
1 
1 
1 
1 
1 
1 
1 
1 
1 
1 
1 
1 
1 
1 
1 
1 
1 
1 
1 
1 
1 
1 
1 
1 
1 
1 
1 
1 
1 
1 
1 
1 
1 
1 
1 
1 
1 
1 
1 
1 
1 
1 
1 
1 
1 
1 
1 
1 
1 
1 
1 
1 
1 
1 
1 
1 
1 
1 
1 
1 
1 
1 
1 
1 
1 
1 
1 
1 
1 
1 
1 
1 
1 
1 
1 
1 
1 
1 
1 
1 
1 
1 
1 
1 
1 
1 
1 
1 
1 
1 
1 
1 
1 
1 
1 
1 
1 
1 
1 
1 
1 
1 
1 
1 
1 
1 
1 
1 
1 
1 
1 
1 
1 
1 
1 
1 
1 
1 
1 
1 
1 
1 
1 
1 
1 
1 
1 
1 
1 
1 
1 
1 
1 
1 
1 
1 
1 
1 
1 
1 
1 
1 
1 
1 
1 
1 
1 
1 
1 
1 
1 
1 
1 
1 
1 
1 
1 
1 
1 
1 
1 
1 
1 
1 
1 
1 
1 
1 
1 
1 
1 
1 
1 
1 
1 
1 
1 
1 
1 
1 
1 
1 
1 
1 
1 
1 
1 
1 
1 
1 
1 
1 
1 
1 
1 
1 
1 
1 
1 
1 
1 
1 
1 
1 
1 
1 
1 
1 
1 
1 
1 
1 
1 
1 
1 
1 
1 
1 
1 
1 
1 
1 
1 
1 
1 
1 
1 
1 
1 
1 
1 
1 
1 
1 
1 
1 
1 
1 
1 
1 
1 
1 
1 
1 
1 
1 
1 
1 
1 
1 
1 
1 
1 
1 
1 
1 
1 
1 
1 
1 
1 
1 
1 
1 
1 
1 
1 
1 
1 
1 
1 
1 
1 
1 
1 
1 
1 
1 
1 
1 
1 
1 
1 
1 
1 
1 
1 
1 
1 
1 
1 
1 
1 
1 
1 
1 
1 
1 
1 
1 
1 
1 
1 
1 
1 
1 
1 
1 
1 
1 
1 
1 
1 
1 
1 
1 
1 
1 
1 
1 
1 
1 
1 
1 
1 
1 
1 
1 
1 
1 
1 
1 
1 
1 
1 
1 
1 
1 
1 
1 
1 
1 
1 
1 
1 
1 
1 
1 
1 
1 
1 
1 
1 
1 
1 
1 
1 
1 
1 
1 
1 
1 
1 
1 
1 
1 
1 
1 
1 
1 
1 
1 
1 
1 
1 
1 
1 
1 
1 
1 
1 
1 
1 
1 
1 
1 
1 
1 
1 
1 
1 
1 
1 
1 
1 
1 
1 
1 
1 
1 
1 
1 
1 
1 
1 
1 
1 
1 
1 
1 
1 
1 
1 
1 
1 
1 
1 
1 
1 
1 
1 
1 
1 
1 
1 
1 
1 
1 
1 
1 
1 
1 
1 
1 
1 
1 
1 
1 
1 
1 
1 
1 
1 
1 
1 
1 
1 
1 
1 
1 
1 
1 
1 
1 
1 
1 
1 
1 
1 
1 
1 
1 
1 
1 
1 
1 
1 
1 
1 
1 
1 
1 
1 
1 
1 
1 
1 
1 
1 
1 
1 
1 
1 
1 
1 
1 
1 
1 
1 
1 
1 
1 
1 
1 
1 
1 
1 
1 
1 
1 
1 
1 
1 
1 
1 
1 
1 
1 
1 
1 
1 
1 
1 
1 
1 
1 
1 
1 
1 
1 
1 
1 
1 
1 
1 
1 
1 
1 
1 
1 
1 
1 
1 
1 
1 
1 
1 
1 
1 
1 
1 
1 
1 
1 
1 
1 
1 
1 
1 
1 
1 
1 
1 
1 
1 
1 
1 
1 
1 
1 
1 
1 
1 
1 
1 
1 
1 
1 
1 
1 
1 
1 
1 
1 
1 
1 
1 
1 
1 
1 
1 
1 
1 
1 
1 
1 
1 
1 
1 
1 
1 
1 
1 
1 
1 
1 
1 
1 
1 
1 
1 
1 
1 
1 
1 
1 
1 
1 
1 
1 
1 
1 
1 
1 
1 
1 
1 
1 
1 
1 
1 
1 
1 
1 
1 
1 
1 
1 
1 
1 
1 
1 
1 
1 
1 
1 
1 
1 
1 
1 
1 
1 
1 
1 
1 
1 
1 
1 
1 
1 
1 
1 
1 
1 
1 
1 
1 
1 
1 
1 
1 
1 
1 
1 
1 
1 
1 
1 
1 
1 
1 
1 
1 
1 
1 
1 
1 
1 
1 
1 
1 
1 
1 
1 
1 
1 
1 
1 
1 
1 
1 
1 
1 
1 
1 
1 
1 
1 
1 
1 
1 
1 
1 
1 
1 
1 
1 
1 
1 
1 
1 
1 
1 
1 
1 
1 
1 
1 
1 
1 
1 
1 
1 
1 
1 
1 
1 
1 
1 
1 
1 
1 
1 
1 
1 
1 
1 
1 
1 
1 
1 
1 
1 
1 
1 
1 
1 
1 
1 
1 
1 
1 
1 
1 
1 
1 
1 
1 
1 
1 
1 
1 
1 
1 
1 
1 
1 
1 
1 
1 
1 
1 
1 
1 
1 
1 
1 
1 
1 
1 
1 
1 
1 
1 
1 
1 
1 
1 
1 
1 
1 
1 
1 
1 
1 
1 
1 
1 
1 
1 
1 
1 
1 
1 
1 
1 
1 
1 
1 
1 
1 
1 
1 
1 
1 
1 
1 
1 
1 
1 
1 
1 
1 
1 
1 
1 
1 
1 
1 
1 
1 
1 
1 
1 
1 
1 
1 
1 
1 
1 
1 
1 
1 
1 
1 
1 
1 
1 
1 
1 
1 
1 
1 
1 
1 
1 
1 
1 
1 
1 
1 
1 
1 
1 
1 
1 
1 
1 
1 
1 
1 
1 
1 
1 
1 
1 
1 
1 
1 
1 
1 
1 
1 
1 
1 
1 
1 
1 
1 
1 
1 
1 
1 
1 
1 
1 
1 
1 
1 
1 
1 
1 
1 
1 
1 
1 
1 
1 
1 
1 
1 
1 
1 
1 
1 
1 
1 
1 
1 
1 
1 
1 
1 
1 
1 
1 
1 
1 
1 
1 
1 
1 
1 
1 
1 
1 
1 
1 
1 
1 
1 
1 
1 
1 
1 
1 
1 
1 
1 
1 
1 
1 
1 
1 
1 
1 
1 
1 
1 
1 
1 
1 
1 
1 
1 
1 
1 
1 
1 
1 
1 
1 
1 
1 
1 
1 
1 
1 
1 
1 
1 
1 
1 
1 
1 
1 
1 
1 
1 
1 
1 
1 
1 
1 
1 
1 
1 
1 
1 
1 
1 
1 
1 
1 
1 
1 
1 
1 
1 
1 
1 
1 
1 
1 
1 
1 
1 
1 
1 
1 
1 
1 
1 
1 
1 
1 
1 
1 
1 
1 
1 
1 
1 
1 
1 
1 
1 
1 
1 
1 
1 
1 
1 
1 
1 
1 
1 
1 
1 
1 
1 
1 
1 
1 
1 
1 
1 
1 
1 
1 
1 
1 
1 
1 
1 
1 
1 
1 
1 
1 
1 
1 
1 
1 
1 
1 
1 
1 
1 
1 
1 
1 
1 
1 
1 
1 
1 
1 
1 
1 
1 
1 
1 
1 
1 
1 
1 
1 
1 
1 
1 
1 
1 
1 
1 
1 
1 
1 
1 
1 
1 
1 
1 
1 
1 
1 
1 
1 
1 
1 
1 
1 
1 
1 
1 
1 
1 
1 
1 
1 
1 
1 
1 
1 
1 
1 
1 
1 
1 
1 
1 
1 
1 
1 
1 
1 
1 
1 
1 
1 
1 
1 
1 
1 
1 
1 
1 
1 
1 
1 
1 
1 
1 
1 
1 
1 
1 
1 
1 
1 
1 
1 
1 
1 
1 
1 
1 
1 
1 
1 
1 
1 
1 
1 
1 
1 
1 
1 
1 
1 
1 
1 
1 
1 
1 
1 
1 
1 
1 
1 
1 
1 
1 
1 
1 
1 
1 
1 
1 
1 
1 
1 
1 
1 
1 
1 
1 
1 
1 
1 
1 
1 
1 
1 
1 
1 
1 
1 
1 
1 
1 
1 
1 
1 
1 
1 
1 
1 
1 
1 
1 
1 
1 
1 
1 
1 
POINT_DATA 5000
VECTORS Stress float
-1622.16 -3023.72 0.
-3114.07 -3570.67 0.
-200.4 -335.691 0.
-563.51 -1007.97 0.
-3526.73 -6915.66 0.
-126.634 -250.973 0.
-3131.01 -3321.66 0.
-94.7358 -121.608 0.
-233.022 -270.909 0.
-4064.42 -6425.18 0.
-1447.23 -2488.39 0.
-36.4182 -24.3804 0.
-1884.25 -2798.76 0.
-1500.97 -2312.58 0.
-1326.09 -2107.77 0.
-1061.48 -1813.18 0.
-795.092 -1520.38 0.
-796.111 -1598.67 0.
-619.537 -1322.96 0.
-445.716 -1044.5 0.
-505.958 -1014.44 0.
-468.769 -956.012 0.
-431.587 -897.571 0.
-449.535 -906.96 0.
-437.241 -932.342 0.
-427.926 -954.744 0.
-507.609 -1047.04 0.
-526.479 -1074.33 0.
-482.752 -1023.73 0.
-461.059 -998.376 0.
-440.026 -972.363 0.
-427.787 -958.145 0.
-407.975 -921.713 0.
-388.313 -885.131 0.
-393.838 -883.874 0.
-397.156 -916.979 0.
-406.599 -943.959 0.
-456.806 -992.319 0.
-462.113 -1004.69 0.
-411.352 -971.718 0.
-394.689 -946.914 0.
-383.804 -916.333 0.
-393.794 -917.025 0.
-394.606 -923.99 0.
-396.332 -930.041 0.
-395.424 -901.576 0.
-367.02 -835.296 0.
-338.616 -769.016 0.
-299.298 -722.888 0.
-310.458 -816.048 0.
-334.177 -896.644 0.
-310.283 -802.913 0.
-284.723 -673.149 0.
-302.925 -676.41 0.
-339.961 -762.832 0.
-376.997 -849.253 0.
-384.94 -890.082 0.
-383.847 -884.26 0.
-384.335 -876.858 0.
-378.948 -884.09 0.
-397.456 -935.033 0.
-421.532 -980.408 0.
-464.474 -1010.07 0.
-455.555 -989.263 0.
-406.007 -932.236 0.
-397.262 -897.721 0.
-393.213 -858.51 0.
-390.781 -853.256 0.
-400.24 -873.113 0.
-412.247 -890.423 0.
-415.706 -900.591 0.
-444.524 -943.778 0.
-474.077 -986.23 0.
-530.937 -1063.5 0.
-522.602 -1061.27 0.
-505.703 -1054.69 0.
-468.119 -949.076 0.
-473.249 -903.536 0.
-415.978 -877.311 0.
-484.449 -1008.88 0.
-552.972 -1140.4 0.
-500.765 -1191.89 0.
-827.177 -1782.13 0.
-1160.56 -2365.4 0.
-1172.87 -1991.53 0.
-1356.18 -1885.39 0.
-1516.42 -1802.32 0.
-1610.33 -2568.38 0.
-2388.7 -3957.98 0.
-40.9049 -48.4114 0.
-852.707 -1450.19 0.
-4687.84 -7208.85 0.
-329.977 -540.486 0.
-359.561 -466.972 0.
-2981.93 -3522.29 0.
-65.1153 -87.0936 0.
-3469.29 -4710.67 0.
-7.3386 -18.1704 0.
-3662.04 -6140.93 0.
-1010.4 -2185.36 0.
-1418.06 -3047.73 0.
1.92245 3.04479 0.
-208.76 -282.023 0.
-243.036 -339.537 0.
-209.786 -424.995 0.
-126.946 -179.928 0.
-169.7 -221.229 0.
-133.499 -134.356 0.
-480.208 -399.137 0.
-155.041 -208.859 0.
-40.1165 -27.9732 0.
-73.512 -39.9751 0.
-746.294 -1065.94 0.
-420.786 -520.673 0.
-530.377 -948.141 0.
-324.627 -594.127 0.
-156.374 -202.617 0.
-502.054 -1132.24 0.
-347.871 -833.967 0.
-221.289 -508.093 0.
-418.873 -932.345 0.
-383.448 -872.143 0.
-351.316 -808.649 0.
-424.821 -823.905 0.
-411.398 -850.417 0.
-398.862 -876.036 0.
-588.326 -1098.96 0.
-602.171 -1131.27 0.
-467.043 -951.814 0.
-442.751 -929.059 0.
-420.391 -904.371 0.
-407.485 -931.074 0.
-387.272 -895.042 0.
-375.258 -850.809 0.
-387.429 -838.3 0.
-388.773 -873.378 0.
-393.807 -904.766 0.
-535.647 -1026.09 0.
-540.958 -1038.46 0.
-394.604 -912.55 0.
-376.732 -888.953 0.
-361.771 -862.446 0.
-389.85 -910.039 0.
-389.439 -918.23 0.
-389.298 -926.15 0.
-419.205 -903.455 0.
-387.458 -840.519 0.
-356.598 -776.695 0.
-255.873 -513.197 0.
-266.264 -607.138 0.
-284.607 -693.114 0.
-266.395 -662.982 0.
-240.369 -533.668 0.
-340.96 -680.972 0.
-381.496 -763.889 0.
-422.846 -845.992 0.
-395.222 -893.583 0.
-396.188 -885.703 0.
-397.455 -877.524 0.
-359.022 -826.777 0.
-379.785 -875.469 0.
-406.88 -917.828 0.
-544.809 -1044.46 0.
-535.89 -1023.66 0.
-401.862 -893.139 0.
-394.675 -857.066 0.
-392.212 -816.268 0.
-400.832 -825.839 0.
-404.023 -851.965 0.
-412.945 -872.361 0.
-395.942 -824.613 0.
-427.8 -864.762 0.
-460.572 -903.999 0.
-618.071 -1130.76 0.
-614.532 -1123.74 0.
-371.06 -879.943 0.
-468.856 -873.348 0.
-474.945 -826.849 0.
-305.218 -718.081 0.
-374.182 -849.185 0.
-446.454 -976.983 0.
-177.184 -214.316 0.
-398.407 -910.361 0.
-670.711 -1555.33 0.
-237.339 -189.919 0.
-253.951 -245.883 0.
-258.524 -318.591 0.
-35.8012 -86.9242 0.
-408.447 -1064.9 0.
-26.67 -21.2481 0.
-42.7558 -38.1261 0.
-181.256 -231.847 0.
-478.432 -436.709 0.
-124.588 -177.623 0.
-201.02 -263.768 0.
-73.1009 -71.1518 0.
-24.3173 -14.2772 0.
0.597794 0.687869 0.
-457.779 -1201.71 0.
2.13463 4.11338 0.
-82.7801 -218.56 0.
0.716555 1.65155 0.
-248.883 -269.281 0.
-257.387 -266.057 0.
-175.294 -244.098 0.
-153.664 -185.132 0.
-197.241 -216.98 0.
-173.194 -155.966 0.
-721.29 -557.452 0.
-114.612 -84.4321 0.
0.579171 0.375303 0.
-173.664 -163.15 0.
-183.899 -72.1665 0.
-121.718 -48.0995 0.
-42.2655 -22.8407 0.
-35.3417 -18.7767 0.
-32.9501 -18.2818 0.
-282.929 -590.883 0.
-161.855 -259.323 0.
-43.8879 -15.8489 0.
-385.899 -796.134 0.
-356.641 -729.761 0.
-331.015 -659.755 0.
-406.07 -734.888 0.
-392.663 -761.384 0.
-379.704 -787.423 0.
-681.168 -1138.75 0.
-695.012 -1171.06 0.
-470.188 -861.046 0.
-446.992 -837.193 0.
-424.712 -812.424 0.
-391.568 -899.619 0.
-377.531 -857.408 0.
-365.338 -813.354 0.
-388.562 -785.184 0.
-389.06 -821.107 0.
-390.437 -856.152 0.
-614.488 -1059.85 0.
-619.803 -1072.22 0.
-385.046 -846.191 0.
-367.596 -822.171 0.
-351.237 -797.06 0.
-399.608 -889.353 0.
-399.205 -897.537 0.
-399.068 -905.454 0.
-457.472 -890.848 0.
-425.422 -828.215 0.
-393.817 -765.139 0.
-205.034 -310.918 0.
-221.491 -398.808 0.
-2242.09 -1667.28 0.
-220.774 -524.784 0.
-192.639 -397.564 0.
-403.201 -661.328 0.
-443.556 -744.421 0.
-484.765 -826.66 0.
-425.141 -877.447 0.
-425.145 -870.531 0.
-426.162 -862.603 0.
-352.633 -755.928 0.
-375.804 -802.215 0.
-401.539 -845.937 0.
-625.145 -1078.86 0.
-616.224 -1058.06 0.
-411.682 -840.078 0.
-409.266 -799.232 0.
-407.899 -757.337 0.
-414.209 -795.095 0.
-418.174 -820.449 0.
-421.665 -846.277 0.
-398.339 -726.473 0.
-428.949 -767.874 0.
-460.471 -808.362 0.
-726.266 -1176.95 0.
-722.609 -1170.05 0.
-424.269 -776.801 0.
-473.757 -793.456 0.
-478.859 -747.944 0.
-276.524 -476.785 0.
-315.176 -638.229 0.
-367.613 -785.887 0.
-77.2366 -94.0175 0.
-61.4367 -76.0343 0.
-335.237 -590.879 0.
-328.848 -242.834 0.
-108.866 -132.041 0.
-145.868 -185.606 0.
-35.1351 -84.8042 0.
-25.5491 -46.6579 0.
-21.7767 -16.8108 0.
-64.902 -52.5142 0.
-118.294 -173.799 0.
-800.42 -512.313 0.
-306.489 -328.34 0.
-280.405 -301.77 0.
-71.734 -58.757 0.
1.82275 0.991626 0.
-0.000328841 -0.292143 0.
3.41689 8.95769 0.
-2205.97 -3809.4 0.
-2619.2 -5525.25 0.
-52.1285 -142.535 0.
-74.031 -156.262 0.
-3005.76 -4012.03 0.
-184.061 -337.175 0.
-2743.43 -5083.85 0.
-4.97108 -4.33714 0.
-1878.59 -2349.29 0.
-289.725 -266.525 0.
-3387.01 -6146.62 0.
-0.392018 -0.1777 0.
1.05913 0.519312 0.
-4027.99 -7694.44 0.
-0.304369 -0.14692 0.
-2225.51 -3563.4 0.
-1415.7 -2397.56 0.
-658.788 -1178.81 0.
-2152.18 -4263.62 0.
-1122.32 -2358.09 0.
-216.21 -328.793 0.
-1191.23 -2760.24 0.
-797.025 -1943.49 0.
-448.413 -1081.14 0.
-723.08 -1722.28 0.
-593.276 -1445.85 0.
-469.637 -1163.26 0.
-893.764 -1740.2 0.
-892.229 -1736.64 0.
-645.994 -1396.28 0.
-604.283 -1305.36 0.
-562.64 -1214.37 0.
-569.113 -1234.77 0.
-553.612 -1241.55 0.
-539.285 -1247.16 0.
-611.689 -1242.12 0.
-620.357 -1304.14 0.
-629.878 -1365.31 0.
-862.757 -1611.54 0.
-864.036 -1614.55 0.
-618.918 -1378.84 0.
-594.615 -1331.06 0.
-570.505 -1283.1 0.
-609.047 -1315.52 0.
-596.83 -1307.47 0.
-585.742 -1298.3 0.
-655.744 -1303.17 0.
-645.821 -1298.48 0.
-637.076 -1292.61 0.
-366.125 -671.768 0.
-360.296 -698.268 0.
-2962.94 -2321.47 0.
-310.53 -781.931 0.
-315.403 -745.047 0.
-671.006 -1271.45 0.
-670.852 -1259.77 0.
-672.329 -1246.46 0.
-620.901 -1258.57 0.
-644.899 -1298 0.
-669.898 -1336.43 0.
-587.156 -1272.92 0.
-597.612 -1290.52 0.
-608.234 -1307.95 0.
-866.107 -1540.26 0.
-856.624 -1518.12 0.
-598.986 -1240.82 0.
-607.847 -1213.01 0.
-617.904 -1183.99 0.
-591.291 -1237.57 0.
-606.745 -1236.49 0.
-622.969 -1234.64 0.
-578.375 -1188.98 0.
-627.775 -1291.63 0.
-677.274 -1394.17 0.
-913.844 -1771.18 0.
-920.776 -1787.4 0.
-464.788 -972.828 0.
-693.387 -1504.45 0.
-916.814 -1975.57 0.
-413.454 -826.7 0.
-934.527 -2041.38 0.
-1523.56 -3188.09 0.
-150.26 -85.3878 0.
-1330.59 -2735.35 0.
-2615.64 -5280.57 0.
-414.233 -585.898 0.
-1376.17 -2049.47 0.
-2381.38 -3469.75 0.
-99.6453 -229.405 0.
-4514.14 -7964.19 0.
-102.269 -173.548 0.
-3.0338 -7.17179 0.
-3811.2 -4988.19 0.
-0.272456 -0.467203 0.
-1938.13 -2774.68 0.
-0.510588 -1.12448 0.
-3303.18 -5650.47 0.
-578.737 -930.795 0.
-1393.85 -2221.19 0.
-0.888254 -11.2177 0.
2.58372 4.47512 0.
-2.24529 -21.9399 0.
-0.307558 -15.2836 0.
-3112.7 -6717.31 0.
-135.351 -163.287 0.
-3.10087 -5.83293 0.
-357.818 -814.412 0.
-0.284255 -0.424926 0.
-8.1739 -5.63492 0.
-15.5258 -8.04919 0.
-282.957 -437.507 0.
-11.3105 -4.30265 0.
-3.37253 -1.3919 0.
1.25614 1.05661 0.
-0.196966 -0.229956 0.
-76.0988 -61.3276 0.
-59.2269 -51.6014 0.
-67.9162 -64.9973 0.
-295.528 -396.434 0.
-90.6777 -92.9831 0.
-47.3852 -66.532 0.
-612.336 -1518.99 0.
-281.9 -637.323 0.
-46.9308 -57.0183 0.
-571.475 -1394.04 0.
-461.689 -1097.49 0.
-360.093 -792.751 0.
-838.194 -1716.44 0.
-836.657 -1712.88 0.
-619.109 -1351.12 0.
-575.119 -1262.47 0.
-531.395 -1173.55 0.
-571.683 -1159.46 0.
-556.376 -1166.05 0.
-541.949 -1171.76 0.
-627.105 -1187.61 0.
-634.973 -1250.44 0.
-643.673 -1312.43 0.
-877.158 -1617.69 0.
-878.434 -1620.7 0.
-651.947 -1361.58 0.
-628.684 -1312.77 0.
-605.628 -1263.75 0.
-638.431 -1261.75 0.
-626.853 -1253.07 0.
-616.391 -1243.28 0.
-681.295 -1252.26 0.
-670.898 -1248.05 0.
-661.752 -1242.59 0.
-318.261 -493.011 0.
-315.58 -516.365 0.
-3609.5 -2592.05 0.
-214.448 -520.162 0.
-212.623 -489.97 0.
-694.522 -1231.94 0.
-694.618 -1220.01 0.
-695.412 -1207.38 0.
-664.849 -1212.01 0.
-688.773 -1251.51 0.
-713.669 -1290.04 0.
-638.076 -1257.79 0.
-648.425 -1275.49 0.
-658.94 -1293.02 0.
-919.049 -1562.91 0.
-909.564 -1540.78 0.
-620.604 -1181.25 0.
-630.625 -1152.27 0.
-641.664 -1122.28 0.
-598.188 -1164.19 0.
-612.291 -1164.46 0.
-629.566 -1161.56 0.
-565.308 -1150.88 0.
-615.075 -1253.16 0.
-665.14 -1355.14 0.
-864.572 -1703.45 0.
-886.536 -1704.64 0.
-335.714 -423.791 0.
-487.776 -938.563 0.
-680.078 -1441.09 0.
-117.015 -94.6658 0.
-106.198 -86.6947 0.
-667.564 -1181.83 0.
-62.058 -63.2374 0.
-41.28 -57.1074 0.
-295.929 -204.8 0.
-47.9343 -105.308 0.
-62.6806 -158.6 0.
-276.733 -377.812 0.
-107.296 -195.805 0.
-129.007 -264.025 0.
-104.779 -170.853 0.
-15.7057 -27.829 0.
0.444345 0.797678 0.
-1.89503 -1.46873 0.
-0.414042 -0.296032 0.
2.15184 3.90002 0.
-2.11467 -4.9555 0.
-152.551 -175.37 0.
4.88353 12.6777 0.
-0.371282 -2.93843 0.
-2987.83 -4496.48 0.
-3334 -6251.62 0.
-126.962 -295.718 0.
-46.8161 -103.954 0.
0.00518363 1.0166 0.
-0.65107 -2.04552 0.
-335.769 -857.666 0.
1.26783 2.47628 0.
-2360.92 -4172.65 0.
-501.503 -1027.08 0.
-2735.51 -5473.66 0.
-117.581 -136.069 0.
-114.381 -114.984 0.
-3380.92 -7009.15 0.
-0.132774 -0.0757771 0.
-2774.64 -4476.6 0.
-712.75 -1056.98 0.
-15.3374 -11.3727 0.
-2859.36 -5921.84 0.
-1052.82 -2005.03 0.
-60.4898 -101.649 0.
-1985.97 -4338 0.
-947.915 -2228.94 0.
-14.9185 -14.8111 0.
-1115.88 -2490.64 0.
-700.884 -1604.13 0.
-313.019 -690.495 0.
-881.768 -1749.63 0.
-734.052 -1495.61 0.
-492.089 -1082.74 0.
-436.856 -983.329 0.
-382.484 -883.058 0.
-465.424 -888.361 0.
-457.768 -890.215 0.
-450.601 -891.582 0.
-476.768 -863.137 0.
-440.524 -788.93 0.
-404.436 -714.567 0.
-654.882 -1070.64 0.
-657.298 -1076.27 0.
-463.183 -777.505 0.
-474.081 -811.483 0.
-485.115 -845.323 0.
-516.499 -874.831 0.
-501.406 -847.131 0.
-486.926 -818.817 0.
-567.489 -883.645 0.
-604.909 -970.314 0.
-642.595 -1056.72 0.
-219.556 -222.929 0.
-191.355 -147.634 0.
-3439.53 -2227.45 0.
-52.7018 -110.662 0.
-79.9782 -178.609 0.
-647.405 -1074.69 0.
-609.363 -984.995 0.
-583.411 -883.212 0.
-556.136 -814.42 0.
-555.779 -808.418 0.
-555.635 -802.203 0.
-486.18 -758.628 0.
-484.15 -747.825 0.
-482.144 -736.999 0.
-740.637 -1089.75 0.
-752.27 -1116.85 0.
-461.092 -732.76 0.
-479.385 -765.193 0.
-497.809 -797.497 0.
-477.137 -820.702 0.
-499.078 -851.017 0.
-521.2 -881.152 0.
-446.194 -867.056 0.
-545.007 -1062.42 0.
-643.899 -1257.71 0.
-891.127 -1661.94 0.
-1096.36 -1998.34 0.
-334.637 -455.781 0.
-841.37 -1689.36 0.
-1385.96 -2853.26 0.
-53.6255 -23.4457 0.
-1047.47 -2033.04 0.
-2491.48 -5220.64 0.
-10.9649 -15.2758 0.
-796.53 -646.595 0.
-2617.16 -3910.85 0.
-7.87985 -19.5427 0.
-3988.66 -8479.91 0.
-199.399 -294.915 0.
-187.457 -184.567 0.
-3094.63 -4503.6 0.
-94.4088 -133.526 0.
-3737.26 -6079.93 0.
-131.386 -266.716 0.
-1639.06 -4021.32 0.
4.53997 12.0339 0.
-1.09217 -5.93439 0.
-323.977 -316.845 0.
0.120966 4.31866 0.
-2008.76 -4717.31 0.
-1.49363 -7.21171 0.
-1160.17 -2405.89 0.
-497.631 -835.361 0.
-0.117768 -2.41378 0.
-478.842 -988.293 0.
1.67053 4.30038 0.
4.37876 6.68896 0.
-510.8 -1044.33 0.
-1998.93 -4793.38 0.
-123.47 -292.923 0.
-128.803 -294.004 0.
0.854758 0.202468 0.
-79.6258 -30.0617 0.
-76.3925 -29.0224 0.
-1.65376 -0.700092 0.
-0.849566 -0.420966 0.
-1.00144 -0.566195 0.
0.40472 0.323649 0.
-0.57759 -0.517448 0.
-39.8967 -79.9865 0.
-29.3253 -63.7066 0.
-36.5267 -84.4342 0.
-377.12 -820.23 0.
-9.28537 -9.18434 0.
0.8951 0.597688 0.
-593.689 -1449.77 0.
-241.6 -499.3 0.
-44.2387 -72.3994 0.
-612.098 -1306.3 0.
-481.061 -1035.45 0.
-408.656 -930.397 0.
-363.167 -821.227 0.
-320.61 -709.124 0.
-440.568 -826.142 0.
-435.223 -825.689 0.
-428.069 -827.045 0.
-442.905 -808.494 0.
-404.479 -736.465 0.
-368.282 -662.207 0.
-670.743 -1077.4 0.
-673.159 -1083.04 0.
-465.491 -755.455 0.
-476.297 -789.527 0.
-487.256 -823.445 0.
-513.576 -816.787 0.
-498.961 -788.613 0.
-484.987 -759.798 0.
-548.635 -852.097 0.
-586.333 -938.498 0.
-624.219 -1024.71 0.
-222.029 -177.161 0.
-186.032 -140.24 0.
-2889.87 -1986.79 0.
-29.7485 -59.5508 0.
-57.1092 -127.419 0.
-614.234 -1021.77 0.
-575.816 -932.454 0.
-537.809 -842.723 0.
-551.376 -770.352 0.
-551.243 -764.124 0.
-552.28 -756.725 0.
-493.61 -754.766 0.
-492.16 -743.382 0.
-490.835 -731.871 0.
-747.427 -1092.63 0.
-759.055 -1119.74 0.
-436.712 -685.489 0.
-454.932 -717.998 0.
-478.57 -745.089 0.
-418.829 -725.423 0.
-440.697 -755.813 0.
-462.309 -786.459 0.
-339.326 -581.311 0.
-415.109 -799.77 0.
-497.901 -1011.22 0.
-560.449 -994.749 0.
-736.816 -1360.3 0.
-109.476 -79.3124 0.
-205.465 -112.614 0.
-672.411 -1356.12 0.
-59.7374 -25.3764 0.
-29.848 -20.2403 0.
-405.931 -225.994 0.
-57.2706 -35.4289 0.
-0.00217113 -0.542146 0.
-18.6547 -42.1469 0.
-9.92852 -20.3553 0.
-86.0513 -146.153 0.
-177.536 -276.095 0.
-28.9794 -45.0414 0.
-1.02378 -0.158589 0.
-50.7856 -133.577 0.
-160.471 -444.443 0.
0.647391 1.60663 0.
-1552.95 -3936.68 0.
-0.494216 -5.19193 0.
-2732.78 -5609.14 0.
-204.099 -143.409 0.
-0.00171345 -27.657 0.
-3.73657 -8.20156 0.
-0.0135819 -11.2495 0.
-239.89 -484.177 0.
-2424.57 -3666.13 0.
5.46889 11.8365 0.
-2292.25 -4518.2 0.
-0.92631 -23.7136 0.
-2.14525 -5.27767 0.
-37.1518 -78.6025 0.
-359.519 -877.551 0.
-90.4638 -200.737 0.
-20.1708 -45.4055 0.
0.0472102 2.186 0.
-109.64 -107.926 0.
-62.3528 -22.5892 0.
-15.9701 -17.6409 0.
0.256448 0.112432 0.
-0.517082 -0.258698 0.
-1.01555 -0.834526 0.
-0.899904 -0.961237 0.
-14.0758 -31.634 0.
-9.08561 -22.6043 0.
-31.9059 -78.5452 0.
-26.2466 -63.437 0.
0.228886 0.105219 0.
0.331075 0.168971 0.
-178.021 -302.386 0.
-14.7494 -25.0137 0.
-32.1898 -65.3005 0.
-391.294 -814.105 0.
-277.584 -525.785 0.
-349.134 -754.146 0.
-309.837 -638.766 0.
-271.959 -521.967 0.
-421.344 -758.291 0.
-413.768 -760.072 0.
-406.862 -761.183 0.
-417.09 -745.804 0.
-378.245 -674.19 0.
-339.641 -602.334 0.
-686.605 -1084.16 0.
-689.02 -1089.81 0.
-468.444 -732.76 0.
-479.149 -766.935 0.
-490.013 -800.951 0.
-511.391 -758.004 0.
-497.326 -729.285 0.
-483.577 -700.25 0.
-534.785 -815.545 0.
-572.541 -901.898 0.
-610.385 -988.163 0.
-210.932 -144.963 0.
-218.318 -155.112 0.
-2967.54 -2032.58 0.
-6.32446 -8.90994 0.
-33.9628 -76.5063 0.
-581.328 -968.598 0.
-542.713 -879.47 0.
-504.284 -790.156 0.
-552.81 -720.091 0.
-552.623 -713.914 0.
-552.89 -707.282 0.
-513.982 -737.963 0.
-512.656 -726.451 0.
-511.484 -714.786 0.
-754.218 -1095.51 0.
-765.84 -1122.63 0.
-420.986 -629.565 0.
-444.432 -656.85 0.
-468.009 -684.004 0.
-373.514 -617.152 0.
-396.339 -646.586 0.
-418.094 -677.089 0.
-252.501 -275.523 0.
-323.055 -499.274 0.
-396.695 -719.938 0.
-294.83 -262.497 0.
-446.886 -652.641 0.
-120.282 -84.3785 0.
-65.4106 -34.5577 0.
-1.55424 -1.58507 0.
-108.056 -42.8111 0.
-74.5739 -35.4567 0.
-62.2549 -37.2598 0.
-162.331 -74.0103 0.
-96.3972 -73.3492 0.
-59.6959 -89.098 0.
-81.7991 -118.33 0.
-199.876 -249.881 0.
-373.07 -400.882 0.
-123.257 -167.747 0.
-0.542882 -0.210361 0.
-151.077 -251.061 0.
-171.934 -457.284 0.
-0.0915061 -4.43318 0.
-915.447 -2442.7 0.
-0.480876 -4.40334 0.
-290.805 -644.093 0.
-1449.03 -2409.44 0.
-0.118829 -16.4496 0.
20.0358 39.1843 0.
-1.30463 -36.9077 0.
-2541.12 -4110.7 0.
36.4714 51.973 0.
-7.61198 -50.4057 0.
2.67074 6.18055 0.
-3.10042 -43.675 0.
-417.307 -1007.32 0.
-1702.32 -3738.4 0.
-0.118862 -26.1842 0.
-61.4997 -126.173 0.
-1.61417 -4.23632 0.
-1892.77 -3469.98 0.
-1858.69 -2349.1 0.
-11.1182 -11.9653 0.
-2287.55 -4974.43 0.
-23.9181 -33.4427 0.
-55.9117 -80.1405 0.
-3772.42 -7822.54 0.
-40.7156 -52.6416 0.
-2832.85 -4655.27 0.
-37.5986 -86.0573 0.
-11.8649 -30.051 0.
-3050.72 -7205.77 0.
-184.543 -354.992 0.
-4.75759 -6.66486 0.
-1888.72 -4559.76 0.
-685.869 -1742.73 0.
-15.2539 -23.9566 0.
-1214.92 -2796.66 0.
-779.819 -1884.8 0.
-870.676 -2052.23 0.
-639.655 -1549.78 0.
-425.914 -1030.05 0.
-660.611 -1421.33 0.
-569.099 -1255.08 0.
-478.392 -1088.02 0.
-591.362 -1164.14 0.
-561.336 -1130.33 0.
-532.182 -1095.66 0.
-870.685 -1606.99 0.
-858.511 -1578.6 0.
-612.6 -1159.56 0.
-597.822 -1133.61 0.
-583.644 -1107.06 0.
-582.831 -1086.99 0.
-597.345 -1125.01 0.
-612.184 -1162.7 0.
-666.014 -1244.83 0.
-671.071 -1271.1 0.
-681.604 -1291.88 0.
-415.125 -533.218 0.
-409.874 -521.941 0.
-2737.87 -2344.51 0.
-168.106 -450.198 0.
-172.251 -462.462 0.
-661.927 -1292.98 0.
-639.742 -1239.2 0.
-627.765 -1175.2 0.
-658.371 -1126.1 0.
-647.11 -1096.69 0.
-635.986 -1067.15 0.
-607.33 -1077.37 0.
-618.206 -1095.02 0.
-630.936 -1110.82 0.
-907.567 -1529.74 0.
-920.766 -1560.52 0.
-535.239 -986.5 0.
-594.579 -1086.12 0.
-655.144 -1184.52 0.
-464.612 -1022.81 0.
-583.524 -1282.61 0.
-709.528 -1535.33 0.
-458.589 -904.379 0.
-723.263 -1601.36 0.
-1025.08 -2261.2 0.
-912.743 -1856.92 0.
-1535.69 -3269.02 0.
-50.0074 -18.098 0.
-767.328 -1417.18 0.
-2411.41 -5244.94 0.
-91.4089 -36.2552 0.
-3.6304 -4.27109 0.
-3220.7 -6790.53 0.
0.176854 0.385108 0.
-0.150924 -0.307436 0.
-3469 -5049.07 0.
-58.1165 -79.0402 0.
-3519.61 -7369.61 0.
-281.244 -395.143 0.
-520.392 -544.353 0.
-1867.44 -4003.46 0.
-387.933 -435.99 0.
-2027.32 -4018.91 0.
0.00178612 0.169809 0.
3.72864 8.27396 0.
-0.940859 -7.57299 0.
-157.382 -343.164 0.
-1.52778 -41.7272 0.
-1.75058 -53.2832 0.
-2000.42 -3551.5 0.
-43.3145 -103.027 0.
5.48893 10.4319 0.
-2145.05 -2788.95 0.
-13.818 -63.3749 0.
-1825.1 -4100.58 0.
10.846 24.226 0.
-2027.79 -4820.49 0.
12.6648 33.2458 0.
-0.0291766 -36.0668 0.
-49.9578 -96.7432 0.
-111.734 -224.618 0.
-556.573 -1165.44 0.
0.388511 0.438029 0.
-1.33922 -2.96682 0.
0.982266 2.23017 0.
-23.5975 -33.4111 0.
-48.4153 -66.7811 0.
-54.5587 -86.7769 0.
-0.492958 -1.08896 0.
-45.852 -105.769 0.
-2.94631 -7.08531 0.
-0.00485957 -0.227222 0.
-8.56782 -22.2655 0.
-0.355531 -0.924858 0.
-0.0250861 -0.105581 0.
-391.293 -949.232 0.
-14.8771 -16.6959 0.
-15.2915 -18.5714 0.
-632.846 -1496.96 0.
-251.949 -529.587 0.
-533.324 -1331.94 0.
-333.514 -797.879 0.
-150.295 -247.225 0.
-510.073 -1192.77 0.
-430.809 -1014.22 0.
-362.089 -825.131 0.
-561.878 -1064.29 0.
-532.617 -1029.72 0.
-504.132 -994.375 0.
-821.141 -1585.73 0.
-808.964 -1557.34 0.
-587.53 -1079.07 0.
-572.929 -1052.94 0.
-558.893 -1026.25 0.
-555.772 -1035.66 0.
-569.838 -1074.13 0.
-584.218 -1112.29 0.
-617.542 -1192.75 0.
-628.088 -1213.54 0.
-638.825 -1234.12 0.
-466.958 -552.428 0.
-461.847 -541.012 0.
-2467.77 -2226.22 0.
-162.926 -441.614 0.
-166.98 -453.97 0.
-635.552 -1235.84 0.
-613.149 -1182.27 0.
-591.148 -1128.3 0.
-617.935 -1072.58 0.
-605.325 -1044.52 0.
-593.917 -1015.26 0.
-579.694 -983.803 0.
-591.31 -1000.71 0.
-603.803 -1016.74 0.
-869.518 -1509.94 0.
-886.952 -1536.5 0.
-476.719 -848.09 0.
-535.059 -948.728 0.
-594.571 -1048.19 0.
-305.478 -610.153 0.
-405.235 -889.224 0.
-516.169 -1157.12 0.
-96.9182 -77.4145 0.
-351.91 -565.404 0.
-614.603 -1265.07 0.
-127.872 -63.8688 0.
-731.471 -1394.66 0.
-91.211 -33.2308 0.
-62.5994 -23.58 0.
-63.2483 -26.4063 0.
-256.669 -97.9553 0.
-22.8315 -19.4129 0.
-15.4637 -20.0544 0.
-6.05193 -11.661 0.
-10.2107 -18.217 0.
-56.87 -79.8009 0.
-90.9385 -112.643 0.
-139.73 -160.573 0.
-510.316 -492.945 0.
-762.951 -695.425 0.
-4.18459 -10.563 0.
-19.6329 -53.9455 0.
0.0649615 3.89956 0.
-1913.68 -4606.21 0.
4.22059 9.14681 0.
2.74908 5.76498 0.
-226.254 -490.389 0.
8.20997 21.0858 0.
-2.0081 -27.2907 0.
0.570677 1.31604 0.
25.3834 52.1927 0.
-789.404 -1441.06 0.
-3030.38 -4875.15 0.
32.3834 57.2609 0.
2.43371 5.53109 0.
26.0661 65.9551 0.
-2.89055 -56.9956 0.
-0.980777 -32.5541 0.
-0.143794 -14.0163 0.
-1663.53 -4086.56 0.
-85.7568 -179.207 0.
-110.61 -273.621 0.
0.132184 0.784156 0.
2.84101 4.66841 0.
0.169769 2.1714 0.
-23.7747 -34.1024 0.
-206.125 -387.575 0.
-1725.6 -4309.07 0.
-0.0376983 -1.01188 0.
-2682.98 -4820.41 0.
-5.38441 -14.536 0.
-0.0855489 -0.223434 0.
-2919.65 -7322.35 0.
-7.65297 -21.1746 0.
-4.61269 -12.3933 0.
-2493.2 -5745.23 0.
-303.94 -646.038 0.
-24.8742 -45.6884 0.
-1652.21 -3859.39 0.
-749.495 -1743.62 0.
-1039.77 -2392.13 0.
-620.02 -1507.13 0.
-235.354 -587.056 0.
-765.804 -1709.25 0.
-562.122 -1308.3 0.
-376.312 -889.475 0.
-613.919 -1173.32 0.
-484.977 -900.479 0.
-350.962 -632.71 0.
-651.585 -1288.35 0.
-628.355 -1247.24 0.
-457.87 -715.299 0.
-470.65 -751.681 0.
-483.642 -787.851 0.
-482.039 -834.056 0.
-461.436 -784.641 0.
-441.27 -734.788 0.
-454.304 -784.05 0.
-464.785 -801.638 0.
-475.522 -818.97 0.
-388.74 -231.686 0.
-372.792 -211.891 0.
-2079.83 -1712.75 0.
-42.6834 -116.029 0.
-58.387 -156.917 0.
-487.41 -863.741 0.
-467.714 -826.44 0.
-448.087 -789.073 0.
-477.278 -743.245 0.
-479.332 -749.982 0.
-483.094 -755.01 0.
-480.106 -697.681 0.
-484.897 -704.614 0.
-490.15 -711.087 0.
-711.297 -1288.12 0.
-757.607 -1360.5 0.
-352.689 -603.89 0.
-509.15 -929.896 0.
-663.379 -1258.13 0.
-332.759 -708.892 0.
-604.632 -1385.95 0.
-909.333 -2030.18 0.
-305.95 -384.133 0.
-768.804 -1511.5 0.
-1278.45 -2592.07 0.
-774.705 -1400.27 0.
-2001.93 -4390.2 0.
-52.6042 -19.9015 0.
0.104233 0.0406296 0.
-2991.84 -6733.93 0.
-99.4801 -39.7405 0.
-75.7683 -35.7693 0.
-2860.77 -3348.82 0.
-160.547 -62.8635 0.
-3914.79 -7759.31 0.
-7.57972 -9.17024 0.
-57.4146 -63.9071 0.
-2746.51 -6170.44 0.
-866.672 -680.753 0.
-1002.21 -856.947 0.
1.32445 3.5614 0.
-0.0359814 -2.42701 0.
-0.0664059 -18.4946 0.
0.0946638 3.08884 0.
-2011.99 -3904.47 0.
-0.0032671 -2.9551 0.
-1627.79 -3535.92 0.
-2183 -5630.85 0.
-2.66781 -22.4262 0.
-1745.13 -3896.92 0.
65.7622 120.046 0.
48.3068 88.1799 0.
139.84 246.675 0.
16.2297 25.5262 0.
13.0676 28.6372 0.
10.7658 26.5083 0.
-112.124 -278.506 0.
-3.65468 -9.30756 0.
-1751.36 -4828.47 0.
-0.0961681 -9.91116 0.
-68.0757 -146.684 0.
-276.548 -764.98 0.
0.00211143 0.0302543 0.
-2205.89 -4930.86 0.
2.69706 6.40886 0.
-2216.51 -4621.95 0.
0.32574 0.891121 0.
0.673846 1.68959 0.
-0.0741939 -1.0491 0.
-51.3122 -100.204 0.
-0.000346398 -0.698713 0.
-0.0165498 -1.58111 0.
-16.1055 -43.2625 0.
-8.00908 -21.9614 0.
-11.769 -32.3389 0.
-19.1154 -34.0642 0.
-13.7717 -27.0255 0.
-14.9744 -34.641 0.
-568.915 -1268.84 0.
-29.9562 -16.757 0.
-454.926 -1073.56 0.
-74.2981 -148.154 0.
-0.000353105 -0.073932 0.
-445.655 -1088.59 0.
-271.588 -657.729 0.
-128.505 -195.883 0.
-470.687 -981.58 0.
-345.938 -704.476 0.
-235.393 -424.417 0.
-573.111 -1192.42 0.
-541.452 -1159.73 0.
-401.226 -651.738 0.
-414.144 -687.987 0.
-427.149 -724.15 0.
-435.675 -769.971 0.
-415.671 -719.955 0.
-396.293 -669.313 0.
-406.452 -755.731 0.
-416.821 -773.433 0.
-427.377 -790.948 0.
-451.831 -311.058 0.
-444.798 -282.348 0.
-1330.05 -1386.92 0.
-79.2238 -211.646 0.
-95.1651 -252.293 0.
-426.779 -822.86 0.
-407.068 -785.573 0.
-387.518 -748.123 0.
-419.586 -668.045 0.
-420.72 -675.703 0.
-422.928 -682.287 0.
-417.14 -615.794 0.
-421.781 -622.876 0.
-426.865 -629.514 0.
-582.44 -1154.13 0.
-632.487 -1222.8 0.
-199.957 -298.466 0.
-327.184 -652.664 0.
-469.119 -993.314 0.
-40.6192 -34.4375 0.
-267.912 -510.538 0.
-521.233 -1206.74 0.
-65.1136 -26.8755 0.
-68.8873 -29.1624 0.
-500.465 -720.52 0.
-81.4711 -43.803 0.
-636.84 -861.408 0.
-83.533 -32.5469 0.
-19.8348 -7.99369 0.
-183.723 -68.3506 0.
-0.0210997 -0.00016214 0.
0.188 0.072244 0.
-68.5433 -47.5607 0.
-12.7386 -8.62144 0.
-21.2728 -15.1779 0.
-6.13646 -6.46693 0.
-13.6006 -27.4785 0.
-374.169 -766.718 0.
0.905265 1.06073 0.
-462.877 -425.82 0.
-2502.51 -5387.1 0.
-0.0622918 -3.11556 0.
7.56112 20.9336 0.
0.316215 10.3347 0.
-1135.07 -2305.1 0.
-0.343574 -22.8382 0.
6.11952 16.1529 0.
-1.91615 -68.9954 0.
-1.76015 -49.2356 0.
11.7416 27.1099 0.
-5.01199 -40.751 0.
-211.728 -378.565 0.
-263.967 -504.312 0.
-11.5542 -97.0823 0.
-3298.08 -6963.76 0.
11.1014 26.7482 0.
-1770.95 -4409.41 0.
-0.0509997 -0.128177 0.
16.5014 45.6715 0.
-0.199483 -22.5855 0.
-55.5813 -122.521 0.
-533.299 -1426.3 0.
-472.326 -1297 0.
-38.6545 -94.0955 0.
-0.308769 -6.55585 0.
-21.831 -57.4149 0.
-0.0023907 -0.178593 0.
-105.588 -267.317 0.
-0.0601438 -0.485606 0.
-120.868 -183.115 0.
-0.00044956 -0.160957 0.
0.000252354 0.372011 0.
-24.7843 -67.0825 0.
-11.7731 -32.1407 0.
-19.4291 -53.1206 0.
-18.3009 -40.4386 0.
-8.75987 -21.1633 0.
-9.38742 -24.9041 0.
-59.2116 -34.5685 0.
-41.8678 -17.0858 0.
-16.2665 -24.4847 0.
-0.934863 -0.979436 0.
0.0146663 0.194415 0.
-178.998 -414.44 0.
-21.8895 -16.7146 0.
-39.5819 -56.7273 0.
-341.6 -775.695 0.
-231.371 -484.002 0.
-155.785 -273.164 0.
-503.459 -1087.67 0.
-472.906 -1053.86 0.
-342.549 -590.21 0.
-357.402 -624.531 0.
-371.27 -659.835 0.
-391.498 -703.698 0.
-372.79 -652.386 0.
-354.548 -600.606 0.
-360.73 -725.283 0.
-371.241 -742.844 0.
-381.79 -760.367 0.
-515.971 -389.381 0.
-508.665 -360.944 0.
-980.257 -1235.44 0.
-116.199 -306.829 0.
-132.017 -347.594 0.
-367.092 -781.035 0.
-347.444 -743.681 0.
-327.681 -706.442 0.
-370.599 -584.139 0.
-370.443 -593.09 0.
-370.589 -601.738 0.
-354.724 -533.357 0.
-359.008 -540.794 0.
-362.051 -549.473 0.
-465.061 -1008.67 0.
-513.04 -1079.42 0.
-91.4379 -72.7818 0.
-208.544 -312.106 0.
-329.304 -674.048 0.
-58.1033 -43.3314 0.
-47.0543 -29.9937 0.
-216.153 -300.293 0.
-86.209 -35.0596 0.
-86.2386 -33.9105 0.
-91.5662 -36.7241 0.
-83.5526 -47.8477 0.
-49.4101 -29.8963 0.
-118.826 -47.5651 0.
-59.5127 -23.8987 0.
-21.018 -8.78916 0.
-0.464761 -0.0102575 0.
-0.321571 -0.0151282 0.
-0.264366 -0.024675 0.
-7.0385 -5.37971 0.
-15.413 -12.2961 0.
-7.55689 -6.72282 0.
-13.9149 -25.9854 0.
-165.283 -427.068 0.
1.11795 1.09284 0.
2.64034 1.54483 0.
-811.041 -2149.83 0.
-320.269 -820.226 0.
-0.0120792 -17.9366 0.
-0.49382 -19.4522 0.
-559.888 -1196.19 0.
3.20432 8.63317 0.
7.40892 19.6369 0.
22.6287 57.2632 0.
7.04216 17.4571 0.
29.8766 68.8276 0.
23.5306 48.821 0.
-395.277 -729.99 0.
-4.47096 -47.4645 0.
-5.37918 -34.9473 0.
63.0232 140.386 0.
40.3915 97.7846 0.
-10.314 -27.7534 0.
-1.3711 -58.7533 0.
6.21615 17.2024 0.
5.64972 15.3667 0.
-54.5377 -122.247 0.
-551.235 -1288.67 0.
-271.808 -722.365 0.
-36.9853 -92.8189 0.
2.01639 5.20386 0.
1.50924 4.11074 0.
-1303.74 -3182.41 0.
-1878.86 -2205.88 0.
-17.9343 -27.9774 0.
-0.55854 -2.59125 0.
-3069.75 -7031.03 0.
-0.197315 -0.706325 0.
-2133.62 -4354.59 0.
0.418951 0.484264 0.
-20.2293 -43.4348 0.
-2550.82 -6157.52 0.
-6.25602 -14.5448 0.
0.0507977 0.149889 0.
-2248.2 -5578.82 0.
-262.856 -474.724 0.
-1536.84 -3438.98 0.
-690.69 -1514.38 0.
-29.6954 -77.3351 0.
-1104.69 -2793.72 0.
-592.871 -1579.41 0.
-123.224 -322.92 0.
-778.704 -1961.75 0.
-551.462 -1414.83 0.
-346.598 -845.526 0.
-755.013 -1885.61 0.
-664.58 -1697.82 0.
-533.511 -1220.32 0.
-482.515 -1100.79 0.
-432.173 -980.602 0.
-450.192 -991.472 0.
-452.672 -998.189 0.
-456.925 -1003.13 0.
-472.027 -1099.26 0.
-441.139 -1018.08 0.
-410.57 -936.574 0.
-592.637 -724.477 0.
-601.412 -732.023 0.
-800.706 -1414.89 0.
-238.534 -646.203 0.
-229.895 -629.46 0.
-396.912 -910.908 0.
-424.614 -987.607 0.
-453.16 -1063.46 0.
-456.307 -970.737 0.
-458.796 -981.839 0.
-463.316 -990.909 0.
-414.044 -940.342 0.
-468.841 -1070.51 0.
-525.9 -1198.42 0.
-661.705 -1584.2 0.
-774.719 -1824.3 0.
-288.175 -523.537 0.
-590.755 -1391.03 0.
-927.664 -2224.2 0.
-53.8838 -43.1559 0.
-666.129 -1564.73 0.
-1334.96 -3154 0.
-78.3324 -45.7218 0.
-780.72 -1334.27 0.
-1903.18 -3929.82 0.
-45.3483 -27.1617 0.
-2472.03 -5507.47 0.
-106.414 -52.3731 0.
-0.216194 -0.00494048 0.
-2847.7 -6774.14 0.
-1.32765 -0.228971 0.
-0.098031 -0.0165049 0.
-2802.96 -4511.47 0.
-61.4961 -83.2383 0.
-2125.41 -3743.6 0.
-11.4512 -28.5338 0.
-1706.17 -4049.73 0.
1.87249 3.84336 0.
0.853782 1.53571 0.
-3.12679 -24.2615 0.
-72.2491 -199.501 0.
-160.575 -407.488 0.
-1783.02 -4456.14 0.
-0.358737 -14.5226 0.
10.0951 27.321 0.
-1127.07 -3053.31 0.
-3.89614 -10.3581 0.
10.6601 26.3825 0.
-3.92841 -63.1476 0.
-2580.3 -5959.85 0.
-22.4913 -201.604 0.
130.577 292.25 0.
-0.76681 -9.81557 0.
113.012 224.806 0.
31.0626 68.9263 0.
37.6425 89.126 0.
31.1326 82.9445 0.
-1.82323 -4.78703 0.
-238.708 -657.355 0.
-0.246175 -37.3403 0.
-8.79646 -23.9328 0.
-259.011 -627.882 0.
-229.156 -590.638 0.
3.81313 10.5596 0.
-1806.76 -4125.84 0.
-0.166266 -8.54372 0.
-492.51 -1301.61 0.
1.30375 3.21403 0.
2.51384 4.65582 0.
2.17497 4.84215 0.
-105.181 -290.949 0.
-0.198399 -1.08851 0.
0.0950359 0.16373 0.
0.104026 0.284203 0.
-4.42868 -8.70569 0.
0.453887 0.995403 0.
0.0430351 0.671188 0.
1.23528 0.00773664 0.
-125.157 -228.348 0.
-40.4757 -106.74 0.
-285.626 -480.559 0.
-19.8405 -52.153 0.
-31.5847 -80.097 0.
-521.643 -1364.74 0.
-53.8029 -104.641 0.
-18.5507 -42.72 0.
-531.169 -1387.68 0.
-331.191 -813.162 0.
-130.607 -258.424 0.
-628.213 -1596.16 0.
-548.465 -1397.62 0.
-449.722 -1089.58 0.
-399.229 -969.523 0.
-349.318 -848.888 0.
-392.476 -922.038 0.
-396.041 -927.672 0.
-401.161 -931.752 0.
-436.357 -1030.78 0.
-405.701 -949.359 0.
-375.369 -867.613 0.
-591.776 -817.196 0.
-600.446 -824.844 0.
-553.151 -1306.34 0.
-268.263 -736.148 0.
-260.099 -718.933 0.
-387.402 -849.975 0.
-414.211 -927.574 0.
-441.947 -1004.25 0.
-385.089 -868.202 0.
-386.2 -880.683 0.
-388.699 -891.777 0.
-318.884 -726.582 0.
-366.641 -863.819 0.
-422.266 -993.189 0.
-494.711 -1171.76 0.
-591.54 -1428.15 0.
-75.4889 -76.8535 0.
-311.482 -567.907 0.
-613.03 -1437.11 0.
-49.8764 -43.8264 0.
-31.063 -36.3303 0.
-527.992 -1162.85 0.
-113.738 -75.0631 0.
-84.2537 -35.4513 0.
-193.705 -119.664 0.
-3.8921 -1.45165 0.
-9.15274 -3.31398 0.
-58.2173 -30.8059 0.
0.445698 0.180257 0.
-0.397871 -0.00447847 0.
1.28142 0.638534 0.
1.52597 0.757373 0.
-53.3066 -26.0803 0.
-13.3079 -19.1758 0.
-72.4664 -179.083 0.
-0.0824191 -0.608562 0.
0.985916 1.21047 0.
0.162459 3.76949 0.
-2738.48 -4977.33 0.
7.19971 19.4968 0.
-121.021 -335.198 0.
-68.1164 -171.607 0.
-0.609499 -29.4666 0.
-0.63596 -23.9201 0.
-0.18402 -26.0993 0.
3.04282 8.42724 0.
30.3816 83.45 0.
-1523.31 -3725.86 0.
12.5767 29.7958 0.
-324.616 -803.92 0.
34.8014 73.9388 0.
33.3235 77.7033 0.
53.4617 122.824 0.
-327.641 -768.344 0.
-632.337 -1404.16 0.
43.9054 102.02 0.
-117.732 -310.779 0.
-66.9677 -175.907 0.
-1494.81 -4087.55 0.
8.66808 23.6616 0.
3.57339 9.68439 0.
-231.54 -567.117 0.
-286.894 -723.718 0.
-351.983 -903.431 0.
-0.372083 -4.64209 0.
-0.00525365 -0.233001 0.
0.081599 0.215827 0.
0.777338 1.95825 0.
2.71774 5.62828 0.
2.65483 6.4486 0.
-109.261 -290.805 0.
-166.351 -439.713 0.
-2126.92 -4663.27 0.
-32.0901 -87.9307 0.
-17.9612 -49.4679 0.
-2261.41 -5735.7 0.
-4.36391 -12.0383 0.
-17.3882 -48.0794 0.
-2275.63 -5362.93 0.
-55.1947 -132.368 0.
-1745.37 -3862.22 0.
-511.577 -922.099 0.
-33.9934 -75.2085 0.
-1399.28 -3467.58 0.
-566.301 -1438.37 0.
-26.4451 -67.6716 0.
-938.23 -2379.2 0.
-514.202 -1337 0.
-120.107 -264.862 0.
-708.5 -1731.05 0.
-539.788 -1350.08 0.
-453.872 -1093.06 0.
-377.459 -926.725 0.
-307.134 -754.305 0.
-363.675 -867.953 0.
-323.781 -767.909 0.
-285.427 -666.325 0.
-319.605 -727.229 0.
-282.067 -629.194 0.
-215.617 -560.07 0.
-453.691 -539.897 0.
-428.866 -455.096 0.
-684.522 -909.527 0.
-129.266 -352.436 0.
-150.682 -416.41 0.
-219.556 -529.278 0.
-302.931 -623.133 0.
-351.638 -751.656 0.
-270.833 -639.033 0.
-325.359 -780.067 0.
-381.474 -919.513 0.
-308.674 -725.223 0.
-410.787 -971.165 0.
-520.507 -1209.5 0.
-596.496 -1407.45 0.
-837.601 -1961.12 0.
-132.037 -115.067 0.
-602.787 -1417.75 0.
-1104.86 -2689.11 0.
-26.5904 -21.7595 0.
-534.404 -1220.25 0.
-1679.59 -4061.1 0.
-110.027 -74.3744 0.
-413.274 -284.003 0.
-1874.22 -3745.43 0.
-27.9184 -27.1606 0.
-2403.67 -5830.39 0.
-262.043 -478.225 0.
-58.724 -67.9955 0.
-2014.73 -3013.53 0.
-11.4191 -16.7296 0.
-2616.19 -6339.05 0.
-157.222 -353.219 0.
-0.362649 -1.15 0.
-43.1514 -89.9706 0.
-0.23024 -1.40257 0.
1.61202 2.17672 0.
0.0295108 5.22469 0.
-2.17659 -4.95736 0.
-0.0954401 -8.63735 0.
-1110.66 -3072.93 0.
-14.4425 -36.1551 0.
-0.356074 -0.938094 0.
-840.333 -2193.58 0.
-0.184898 -36.5536 0.
15.7243 43.1502 0.
21.3214 57.8807 0.
-72.0762 -191.712 0.
49.8059 127.731 0.
-34.8246 -86.287 0.
34.6685 93.9979 0.
56.9569 132.355 0.
-16.8443 -185.207 0.
-932.847 -2193.16 0.
-1163.3 -2924.99 0.
-8.45112 -93.7464 0.
-2201.53 -5765.7 0.
-215.735 -567.252 0.
18.3374 50.4607 0.
-0.181413 -76.3128 0.
7.21206 19.4696 0.
-441.708 -1088.11 0.
20.8261 56.9175 0.
-390.567 -1028.6 0.
-0.112573 -1.38991 0.
0.0860399 3.39314 0.
1.6011 4.30452 0.
-46.5109 -124.241 0.
-2162.64 -5244.13 0.
-0.0238115 -0.956643 0.
-1654.83 -3956.67 0.
0.656335 1.76127 0.
-27.8307 -76.0666 0.
-11.5081 -31.5704 0.
0.378716 1.04032 0.
-41.653 -113.371 0.
-5.90334 -16.0594 0.
-14.2483 -39.011 0.
-39.6294 -106.077 0.
-20.9538 -51.9263 0.
-53.2649 -88.8895 0.
-41.3062 -69.7458 0.
-39.1626 -72.2572 0.
-451.433 -1092.09 0.
-29.8686 -73.4701 0.
-28.3898 -70.7168 0.
-516.671 -1355.49 0.
-122.597 -282.236 0.
-9.72995 -5.92009 0.
-469.125 -1165.08 0.
-314.234 -770.061 0.
-330.367 -847.934 0.
-257.48 -678.03 0.
-195.302 -497.417 0.
-301.162 -780.449 0.
-261.308 -680.355 0.
-221.489 -580.226 0.
-275.529 -680.127 0.
-238.433 -581.642 0.
-183.238 -501.257 0.
-423.169 -593.67 0.
-398.564 -508.655 0.
-289.064 -687.757 0.
-146.12 -399.862 0.
-167.49 -463.882 0.
-188.833 -453.649 0.
-247.235 -572.49 0.
-299.065 -697.901 0.
-180.649 -480.955 0.
-232.729 -624.461 0.
-288.549 -764.228 0.
-170.836 -342.767 0.
-258.807 -602.943 0.
-358.819 -851.078 0.
-307.444 -656.451 0.
-527.414 -1231.69 0.
-44.9642 -43.4481 0.
-53.0026 -43.7942 0.
-564.934 -1307.07 0.
-21.6785 -19.6389 0.
-31.9343 -16.8082 0.
-399.829 -839.474 0.
-81.0972 -50.3599 0.
-13.5774 -6.56653 0.
-10.7366 -7.31444 0.
-38.8519 -39.6574 0.
-91.866 -153.307 0.
-37.9121 -60.3301 0.
-22.1319 -28.7966 0.
-10.0157 -11.9111 0.
0.102619 0.251761 0.
-194.613 -322.109 0.
-0.0055879 -0.288045 0.
0.260057 0.638503 0.
-2338.66 -4555.95 0.
-226.933 -424.859 0.
-1308.29 -2443.84 0.
5.51075 15.2475 0.
1.56172 3.85183 0.
7.51923 20.2198 0.
4.61017 12.2345 0.
-8.53077 -21.203 0.
9.29851 24.4609 0.
3.79803 10.495 0.
-492.688 -1350.7 0.
17.7805 47.9689 0.
20.6143 55.2446 0.
-524.278 -1380.24 0.
-5.14413 -142.455 0.
11.2397 27.8673 0.
3.23667 8.86322 0.
100.184 226.218 0.
-1243.02 -2718.84 0.
-31.3146 -74.2093 0.
5.93788 15.0406 0.
-3.69418 -82.8608 0.
29.2277 76.8386 0.
-1.76958 -4.86921 0.
28.5779 77.8429 0.
26.3686 72.9429 0.
-517.066 -1390.68 0.
-645.131 -1594.89 0.
-0.108629 -43.5364 0.
-404.022 -1078.73 0.
5.11041 11.8754 0.
-0.501489 -17.7807 0.
-1339.64 -3074.45 0.
-0.0851539 -7.41865 0.
1.53247 4.05863 0.
-0.0532036 -8.48939 0.
-0.10465 -0.613873 0.
0.0588874 1.57181 0.
-0.000972554 -1.18044 0.
-6.78477 -18.6025 0.
-1.54997 -4.24543 0.
-28.0821 -74.084 0.
-10.2985 -27.3382 0.
-18.0677 -48.5276 0.
-18.5001 -45.186 0.
-7.97743 -15.9572 0.
-76.8594 -117.134 0.
-67.9001 -104.494 0.
-63.1136 -101.872 0.
-55.3967 -102.022 0.
-43.2363 -85.3772 0.
-35.2058 -77.9788 0.
-129.628 -297.277 0.
-24.5226 -26.9468 0.
-7.59761 -5.12289 0.
-260.004 -568.857 0.
-143.824 -250.344 0.
-232.627 -577.047 0.
-167.917 -398.919 0.
-129.89 -283.17 0.
-259.077 -672.515 0.
-219.9 -571.736 0.
-183.261 -468.418 0.
-235.095 -629.383 0.
-193.997 -534.893 0.
-158.902 -434.4 0.
-409.569 -630.523 0.
-380.028 -550.446 0.
-285.611 -640.505 0.
-164.599 -445.663 0.
-185.198 -510.454 0.
-174.454 -407.604 0.
-210.513 -502.871 0.
-255.513 -635.124 0.
-122.222 -316.783 0.
-167.347 -441.606 0.
-219.666 -584.898 0.
-53.5294 -66.0862 0.
-123.195 -221.009 0.
-214.914 -474.874 0.
-46.8629 -34.561 0.
-247.067 -472.415 0.
-64.0459 -51.4457 0.
-51.1371 -42.1422 0.
-37.2174 -33.4957 0.
-31.143 -24.9264 0.
-45.5186 -22.7039 0.
-90.8646 -51.5043 0.
-113.85 -78.529 0.
-30.1576 -13.0588 0.
-12.9373 -7.16065 0.
-100.126 -73.9812 0.
-146.698 -190.792 0.
-15.0207 -24.1592 0.
-4.50563 -6.27162 0.
0.122761 0.160724 0.
-0.000244043 -0.0302054 0.
0.283276 0.647741 0.
0.65191 1.76537 0.
0.308978 0.790578 0.
0.247836 0.594421 0.
0.192853 0.385056 0.
-1083.16 -2286.87 0.
-1426.3 -3841.33 0.
5.18059 13.539 0.
4.49223 12.0421 0.
-0.411422 -1.09845 0.
-914.486 -2428.91 0.
10.3142 27.0909 0.
-1.09541 -3.03269 0.
-1.08763 -86.6065 0.
-1297.66 -3451.65 0.
-2.25974 -119.015 0.
-947.803 -2475.21 0.
14.9329 40.0167 0.
-11.0442 -27.4023 0.
-596.841 -1515.27 0.
-0.706108 -171.354 0.
-1.65759 -4.52476 0.
61.7539 146.801 0.
34.9331 88.6434 0.
36.452 95.7545 0.
-24.2972 -63.6688 0.
-0.415288 -103.927 0.
-1.87965 -5.06772 0.
-3.3756 -9.34969 0.
-1025.33 -2750.33 0.
-0.0226298 -68.9367 0.
-0.112925 -40.8666 0.
-406.054 -1093.34 0.
-0.524291 -25.791 0.
-577.779 -1392.68 0.
-20.4192 -47.1239 0.
1.2539 3.39795 0.
-0.00204691 -0.276231 0.
0.00125108 4.88314 0.
-0.523134 -3.07072 0.
-1618.6 -3582.32 0.
-0.0187358 -1.10322 0.
-2310.22 -4771.3 0.
-10.4538 -28.9003 0.
-1666.81 -3851.13 0.
-34.1427 -94.5464 0.
-6.27186 -17.3316 0.
-2131.68 -5470.99 0.
-24.1079 -51.2208 0.
-1992.69 -3676.38 0.
-210.25 -331.658 0.
-41.9119 -60.6549 0.
-1944.89 -4931.6 0.
-244.984 -549.401 0.
-52.426 -82.7334 0.
-1228.72 -3214.78 0.
-495.301 -1315.94 0.
-46.7618 -108.128 0.
-917.071 -2312.44 0.
-551.551 -1379.76 0.
-646.972 -1641.34 0.
-465.675 -1198.71 0.
-294.556 -745.898 0.
-455.718 -1229.03 0.
-359.302 -992.055 0.
-270.031 -747.937 0.
-357.061 -988.983 0.
-302.67 -836.97 0.
-251.432 -681.805 0.
-476.356 -886.055 0.
-447.758 -806.841 0.
-297.391 -808.328 0.
-281.797 -742.947 0.
-313.493 -824.823 0.
-270.367 -644.14 0.
-340.517 -861.317 0.
-417.769 -1071.39 0.
-236.924 -648.575 0.
-359.431 -977.658 0.
-487.414 -1301.26 0.
-251.675 -611.879 0.
-463.021 -1182.58 0.
-689.324 -1738.33 0.
-535.16 -1289.94 0.
-1009.57 -2512.75 0.
-48.9845 -32.929 0.
-458.547 -1064.31 0.
-1457.12 -3643.29 0.
-41.7319 -18.3661 0.
-57.8372 -29.7939 0.
-2218.5 -5542.2 0.
-131.487 -133.165 0.
-60.4226 -72.023 0.
-2039.07 -3235.59 0.
-43.2721 -93.3269 0.
-2417.95 -6149.51 0.
0.327137 0.538933 0.
-0.0961167 -0.208315 0.
-2042.23 -3941.57 0.
-15.1867 -40.1367 0.
-1842.64 -3680.93 0.
-3.61887 -8.30722 0.
-0.0183304 -0.871656 0.
-0.291661 -10.2045 0.
3.4924 7.65633 0.
-0.179875 -21.0085 0.
-371.815 -1027.83 0.
1.34343 3.58123 0.
-0.332443 -21.8637 0.
4.67271 12.5496 0.
-0.0145036 -14.1116 0.
1.53317 4.02069 0.
-14.0458 -38.7445 0.
-0.193877 -39.9856 0.
5.81026 15.8688 0.
-1186.03 -3228.79 0.
-1503.53 -3907.23 0.
22.1731 59.7763 0.
16.4152 40.7624 0.
-65.439 -162.796 0.
-0.615823 -65.1352 0.
-0.921379 -104.286 0.
-32.9591 -78.4328 0.
76.5191 193.969 0.
55.859 147.345 0.
-11.7196 -30.6769 0.
9.81289 26.5095 0.
-1.36435 -89.4094 0.
-560.32 -1512.28 0.
-9.40764 -25.6926 0.
-0.0319198 -47.8153 0.
2.47807 6.81459 0.
-437.705 -1185.34 0.
8.23228 22.802 0.
-363.254 -904.031 0.
-0.189711 -10.8724 0.
5.23671 14.2186 0.
-0.0454101 -4.49288 0.
-1810.21 -4602.51 0.
-0.00294498 -11.0835 0.
-0.0340466 -0.818597 0.
0.000209812 0.360927 0.
-0.0855867 -1.08094 0.
0.776238 2.03697 0.
-25.9074 -71.7012 0.
-4.30329e-06 -0.0155839 0.
0.000555707 0.302229 0.
-65.0655 -138.754 0.
-27.6555 -61.9391 0.
-71.9486 -142.393 0.
-55.4284 -94.0812 0.
-45.5832 -59.3261 0.
-164.367 -279.283 0.
-54.5425 -68.9171 0.
-74.062 -100.586 0.
-473.032 -1208.09 0.
-35.9066 -86.0344 0.
-53.5755 -119.03 0.
-560.158 -1425.19 0.
-213.722 -472.581 0.
-445.034 -1136 0.
-275.079 -681.802 0.
-129.549 -261.926 0.
-355.109 -980.916 0.
-265.949 -736.629 0.
-177.653 -491.478 0.
-338.47 -902.633 0.
-283.503 -751.186 0.
-247.384 -611.171 0.
-432.51 -819.767 0.
-403.882 -740.578 0.
-292.244 -718.512 0.
-287.603 -686.374 0.
-320.126 -767.426 0.
-245.247 -550.524 0.
-309.684 -733.585 0.
-387.651 -942.969 0.
-122.259 -319.655 0.
-234.753 -639.24 0.
-356.784 -968.906 0.
-34.3285 -39.0552 0.
-211.327 -477.442 0.
-424.515 -1046.69 0.
-100.667 -75.8001 0.
-550.234 -1324.9 0.
-52.0908 -33.7993 0.
-45.1028 -23.9243 0.
-368.682 -803.381 0.
-22.9455 -8.42553 0.
-36.4269 -13.3255 0.
-66.8532 -49.9496 0.
-280.48 -261.274 0.
-89.6788 -84.4446 0.
-87.8231 -101.957 0.
-6.67807 -14.717 0.
-19.4283 -51.9416 0.
-0.126305 -0.446123 0.
-0.400399 -0.996295 0.
-57.3829 -93.017 0.
0.0014322 1.53331 0.
0.763857 1.86084 0.
-0.00184726 -0.0827889 0.
-1846.14 -4468.19 0.
-0.407444 -0.93357 0.
2.91467 6.77757 0.
-0.277571 -15.6296 0.
-140.217 -388.082 0.
-0.728041 -1.96006 0.
-453.238 -1255.28 0.
-99.2096 -267.358 0.
6.94075 19.2081 0.
-603.034 -1595.35 0.
-370.596 -1018.2 0.
-7.76888 -21.385 0.
31.345 86.0256 0.
-29.3205 -81.2094 0.
-2.38892 -126.42 0.
-192.639 -514.21 0.
-4.67971 -163.252 0.
-36.057 -87.72 0.
-1.07733 -56.6339 0.
22.0383 58.4547 0.
-23.8536 -56.8302 0.
-5.7378 -141.489 0.
49.5848 131.191 0.
-138.43 -362.548 0.
-21.5995 -58.5911 0.
-181 -480.298 0.
-271.448 -748.809 0.
10.6181 29.1127 0.
-0.0110831 -71.533 0.
9.45491 25.9876 0.
-0.0375709 -13.5462 0.
6.80919 18.8583 0.
-419.758 -1073.95 0.
-0.202436 -22.2481 0.
-1304.36 -3413.08 0.
4.71612 12.8331 0.
-0.0808549 -12.5269 0.
0.000698085 0.158183 0.
-0.0648425 -3.87465 0.
-0.00770534 -6.0558 0.
-0.260998 -2.65569 0.
-0.0189108 -0.476966 0.
-5.32503 -14.6898 0.
-1124.3 -2719.24 0.
-8.10704e-06 -0.302426 0.
-1538.5 -3981.08 0.
-16.0758 -34.9354 0.
-1795.86 -3403.6 0.
-36.0671 -51.082 0.
-23.7534 -36.1892 0.
-1981.42 -5210.4 0.
-22.3167 -33.6026 0.
-40.6178 -57.1333 0.
-1451.24 -3650.21 0.
-303.783 -735.019 0.
-34.4306 -68.7562 0.
-1050.64 -2659.46 0.
-471.413 -1168.12 0.
-715.127 -1749.95 0.
-440.606 -1088.84 0.
-179.831 -413.982 0.
-493.173 -1275.69 0.
-332.876 -880.106 0.
-179.324 -477.78 0.
-383.092 -953.169 0.
-302.035 -739.685 0.
-222.221 -524.957 0.
-392.979 -720.763 0.
-344.737 -591.592 0.
-366.621 -491.835 0.
-251.704 -530.68 0.
-293.539 -646.482 0.
-178.224 -355.779 0.
-305.156 -705.639 0.
-435.273 -1052.31 0.
-145.514 -367.639 0.
-357.798 -940.993 0.
-580.53 -1503.9 0.
-146.307 -273.773 0.
-456.247 -1081.15 0.
-782.84 -1871.87 0.
-438.841 -1015.05 0.
-1201.24 -2989.78 0.
-43.4475 -26.4471 0.
-129.295 -240.676 0.
-1698.03 -4270.52 0.
-55.8871 -62.8432 0.
-45.6632 -27.5349 0.
-1786.43 -4495.17 0.
-277.581 -427.331 0.
-1501.09 -2414.22 0.
-447.835 -1217.64 0.
-35.7141 -72.8623 0.
-1048.18 -2690.76 0.
-220.117 -335.317 0.
0.0486241 0.132531 0.
-63.8012 -109.808 0.
2.82e-05 0.189991 0.
-0.0416231 -1.52491 0.
-0.0034857 -0.576048 0.
-158.176 -384.319 0.
-0.749578 -13.5701 0.
-1508.42 -3413.88 0.
-306.915 -840.216 0.
-205.057 -565.322 0.
-0.258308 -28.7679 0.
-453.828 -1184.09 0.
-220.553 -597.386 0.
10.8807 30.1311 0.
-62.31 -172.327 0.
-931.492 -2550 0.
12.6315 34.8028 0.
-6.26038 -17.244 0.
-57.359 -158.871 0.
-2.06395 -129.903 0.
52.4981 140.287 0.
-478.937 -1252.23 0.
9.46387 22.4682 0.
-3.39095 -103.423 0.
24.116 61.9924 0.
-60.0719 -143.199 0.
-0.208346 -97.3221 0.
7.17917 19.0374 0.
-549.876 -1442.58 0.
-334.169 -909.908 0.
-1037.31 -2739.96 0.
12.7205 35.1417 0.
4.96321 13.6508 0.
-225.046 -623.042 0.
-801.202 -2203.5 0.
-0.043336 -20.3351 0.
-143.042 -396.037 0.
-355.975 -928.419 0.
5.11063 13.9963 0.
1.81397 4.75592 0.
5.27861 14.3384 0.
0.903384 2.49295 0.
-0.110783 -11.1631 0.
0.00054495 0.0857275 0.
0.0036895 0.917179 0.
-1824.02 -4199.4 0.
-32.9535 -82.878 0.
-1002.45 -2533.9 0.
-0.011285 -0.739919 0.
6.07983e-06 0.135013 0.
-61.764 -142.769 0.
-0.15997 -0.592931 0.
-85.6254 -140.172 0.
-39.9952 -59.8285 0.
-27.4035 -47.3646 0.
-168.023 -360.784 0.
-17.8784 -35.2121 0.
-34.2699 -53.1982 0.
-223.069 -474.833 0.
-21.9815 -39.178 0.
-33.1946 -64.6928 0.
-520.45 -1322.02 0.
-34.959 -47.5721 0.
-393.138 -984.967 0.
-137.743 -304.202 0.
-36.3427 -50.6207 0.
-351.117 -888.843 0.
-197.107 -486.821 0.
-81.367 -157.634 0.
-319.386 -756.005 0.
-238.032 -542.777 0.
-168.444 -354.514 0.
-329.486 -564.301 0.
-297.021 -480.587 0.
-172.476 -316.496 0.
-235.532 -440.925 0.
-254.353 -492.751 0.
-99.5627 -200.917 0.
-185.948 -428.804 0.
-313.886 -777.759 0.
-16.142 -33.6439 0.
-164.133 -399.747 0.
-376.312 -973.506 0.
-22.3068 -48.0341 0.
-62.848 -69.0815 0.
-375.118 -874.943 0.
-41.4065 -17.0173 0.
-496.096 -1225.53 0.
-23.4227 -12.3773 0.
-26.8317 -15.7048 0.
-114.648 -221.036 0.
-20.4316 -20.2309 0.
-15.2427 -11.3086 0.
-29.4766 -18.9363 0.
-2.91211 -7.95482 0.
-263.173 -671.227 0.
-20.5156 -45.5142 0.
0.435791 0.822905 0.
-38.961 -60.7088 0.
0.781619 1.14701 0.
-2464.47 -5726.8 0.
-0.0362412 -3.16915 0.
-28.9277 -72.7176 0.
-1694.86 -4090.89 0.
0.00379482 2.73124 0.
-190.076 -489.063 0.
-0.564429 -16.5707 0.
-18.4352 -43.5417 0.
-212.435 -586.424 0.
-0.864506 -24.8838 0.
1.80495 4.91885 0.
-400.553 -1057.74 0.
-603.335 -1640.78 0.
-16.3066 -45.1645 0.
-30.397 -84.0582 0.
-352.821 -972.385 0.
-72.7507 -200.62 0.
3.42479 9.4582 0.
-36.9272 -102.28 0.
32.3075 86.7328 0.
57.808 154.49 0.
32.8202 90.6683 0.
-130.18 -301.046 0.
-3.50737 -66.9387 0.
-56.6183 -139.164 0.
-93.8173 -223.656 0.
-0.431786 -178.271 0.
26.174 69.4764 0.
-966.146 -2542.71 0.
-691.25 -1888.64 0.
-294.854 -804.174 0.
-0.074664 -116.882 0.
-3.55345 -9.79873 0.
-451.438 -1249.57 0.
29.5612 80.7505 0.
15.0528 41.6315 0.
-502.288 -1389.93 0.
11.9029 31.2637 0.
-65.4076 -176.403 0.
-0.431226 -17.6045 0.
4.36835 11.8451 0.
4.26923 11.8228 0.
7.1191 19.3812 0.
-1606.1 -3799.7 0.
0.00992464 4.98258 0.
-35.4937 -94.187 0.
-7.66444 -20.0031 0.
-0.0224988 -0.600706 0.
0.0218147 1.95908 0.
0.00130322 2.02887 0.
-38.9512 -84.9961 0.
0.42207 0.755632 0.
-0.0333361 -0.11409 0.
-52.2575 -70.8061 0.
-45.7199 -63.9245 0.
-23.126 -51.24 0.
-18.4132 -34.5823 0.
-39.8626 -63.1692 0.
-25.9977 -43.1104 0.
-22.4664 -38.2918 0.
-32.2142 -68.8314 0.
-44.5085 -62.9943 0.
-32.8187 -46.2696 0.
-99.5731 -191.557 0.
-28.9891 -37.8578 0.
-26.0734 -37.7009 0.
-220.235 -490.824 0.
-91.4269 -143.913 0.
-48.5374 -60.0677 0.
-281.852 -578.29 0.
-219.923 -416.605 0.
-160.353 -256.863 0.
-314.598 -533.84 0.
-287.373 -467.127 0.
-126.128 -209.088 0.
-271.573 -463.184 0.
-275.886 -472.638 0.
-52.9799 -72.6866 0.
-112.854 -241.079 0.
-220.815 -540.193 0.
-27.5785 -38.4946 0.
-30.456 -47.2896 0.
-185.879 -429.328 0.
-32.8787 -49.7634 0.
-15.1238 -25.5761 0.
-23.8992 -19.3025 0.
-30.7075 -15.4549 0.
-21.5974 -10.6431 0.
-19.0851 -8.63075 0.
-32.5291 -15.9432 0.
-53.0738 -35.2426 0.
-14.134 -17.4585 0.
-9.45716 -8.96206 0.
-7.84769 -5.72227 0.
-0.0275045 -0.291141 0.
-17.2902 -47.5608 0.
-4.88514 -10.5113 0.
-0.154631 -0.285761 0.
-0.321109 -0.84548 0.
0.061375 0.197184 0.
-0.105384 -0.298472 0.
0.000576612 1.55016 0.
-0.0202209 -1.31711 0.
-75.8306 -191.93 0.
-0.108826 -8.9762 0.
-1055.6 -2566.26 0.
1.56743 4.13112 0.
7.65594 19.8211 0.
-89.6202 -248.109 0.
-108.867 -300.684 0.
13.7747 37.6779 0.
-475.236 -1265.77 0.
-0.0306057 -58.6965 0.
-215.275 -596.259 0.
-24.984 -69.0859 0.
-16.9966 -46.8785 0.
-657.157 -1813.9 0.
10.1207 28.0002 0.
-60.5132 -167.61 0.
-284.295 -767.128 0.
49.6138 132.5 0.
23.5811 65.0345 0.
42.2716 95.1912 0.
-2.27913 -18.9173 0.
-3.86231 -63.6452 0.
-0.528187 -39.2079 0.
44.7776 123.148 0.
-761.528 -2022.61 0.
-24.4056 -67.3943 0.
11.3618 31.133 0.
-345.625 -945.911 0.
-0.0342219 -104.876 0.
-109.454 -302.434 0.
-616.761 -1706.59 0.
-0.734097 -2.00329 0.
5.05132 13.9641 0.
-830.942 -2297.71 0.
-1.27395 -56.9869 0.
-373.634 -1018.55 0.
16.2322 44.0122 0.
-0.228312 -23.4223 0.
-1101.02 -2798.76 0.
-0.126709 -23.1019 0.
5.75838 14.4262 0.
-0.0012197 -1.02118 0.
-45.0251 -122.806 0.
-12.1913 -33.1781 0.
-228.833 -474.924 0.
-1562.17 -3544.99 0.
-0.00701861 -1.81824 0.
-1526.19 -3413.16 0.
-70.8735 -146.791 0.
-0.00968323 -0.0195529 0.
-2120.89 -5013.18 0.
-28.001 -44.7413 0.
-1368.04 -3417.52 0.
-16.5686 -24.1945 0.
-40.2223 -63.2082 0.
-1640 -4211.57 0.
-42.8951 -72.5433 0.
-38.2939 -67.4381 0.
-1304.77 -3380.05 0.
-245.645 -586.154 0.
-888.355 -2167.87 0.
-463.395 -1123.99 0.
-87.6636 -164.146 0.
-730.649 -1854.83 0.
-437.08 -1099.6 0.
-160.944 -330.758 0.
-546.16 -1334.89 0.
-381.505 -891.119 0.
-218.089 -446.107 0.
-454.825 -915.555 0.
-430.872 -838.955 0.
-226.947 -504.2 0.
-393.491 -839.17 0.
-459.584 -1028.81 0.
-145.959 -345.213 0.
-354.919 -925.458 0.
-564.887 -1504.7 0.
-59.0232 -73.2093 0.
-420.044 -1070.86 0.
-804.536 -2081.35 0.
-39.3774 -36.6066 0.
-448.461 -1007.93 0.
-984.499 -2305.4 0.
-101.567 -128.514 0.
-1428.08 -3666.15 0.
-32.5156 -41.7198 0.
-33.7565 -36.7637 0.
-1771.05 -4627.43 0.
-17.0161 -18.0052 0.
-66.6735 -109.898 0.
-1823.38 -3891.71 0.
-0.00212999 -1.95278 0.
-1792.41 -4131.05 0.
-31.7563 -37.5126 0.
-52.8986 -71.004 0.
-1688.39 -3637.01 0.
-0.0675892 -2.61259 0.
-801.338 -2008.89 0.
0.00884398 3.9917 0.
-0.0113358 -2.78053 0.
5.76598 15.8513 0.
3.94268 10.7628 0.
-0.0297836 -10.377 0.
-941.194 -2445.32 0.
-1.36125 -44.6814 0.
-97.4186 -269.82 0.
-88.027 -242.986 0.
-1117.88 -3061.71 0.
-490.799 -1315.78 0.
22.3146 61.6534 0.
-520.709 -1442.14 0.
-21.0781 -58.2894 0.
-22.0142 -60.7652 0.
-491.046 -1359.9 0.
-150.827 -417.698 0.
-68.5419 -189.848 0.
39.4216 109.16 0.
-112.932 -301.042 0.
-7.83137 -21.5306 0.
61.3532 132.335 0.
-0.121581 -0.330647 0.
31.6884 71.8357 0.
-1.5195 -64.9845 0.
-78.7748 -216.206 0.
-1030.97 -2735.63 0.
36.6805 101.372 0.
-3.24532 -8.90838 0.
-180.305 -497.282 0.
23.4356 64.8928 0.
-142.987 -394.888 0.
-0.893156 -2.46399 0.
-0.501198 -73.6611 0.
6.3266 17.4791 0.
3.07283 8.3522 0.
-1.82396 -4.99582 0.
-471.622 -1293.64 0.
0.00381635 0.383033 0.
-773.557 -1968.72 0.
11.4467 30.8501 0.
-0.0112712 -2.65691 0.
-0.0210193 -14.7488 0.
-814.855 -2091.28 0.
-0.0628946 -3.09227 0.
-1726.03 -3451.12 0.
0.0454782 1.77157 0.
-0.0134675 -0.616475 0.
-4.9434e-06 -4.5885 0.
-73.6103 -155.559 0.
-0.321847 -1.03491 0.
0.0350384 0.0731988 0.
-27.5897 -53.4784 0.
-12.0049 -27.0288 0.
-31.3515 -43.2998 0.
-23.2384 -31.9424 0.
-33.8178 -48.5196 0.
-53.3147 -82.4298 0.
-34.0282 -54.4774 0.
-37.4882 -63.1322 0.
-391.09 -1026.45 0.
-46.4769 -81.5208 0.
-392.396 -898.056 0.
-44.5371 -83.6091 0.
-34.15 -67.9189 0.
-434.491 -1076.59 0.
-159.19 -302.497 0.
-46.3009 -73.558 0.
-413.318 -971.724 0.
-257.268 -545.217 0.
-138.939 -221.645 0.
-413.133 -737.625 0.
-388.292 -656.741 0.
-61.3671 -70.6831 0.
-304.203 -605.405 0.
-366.799 -782.214 0.
-53.2325 -54.5604 0.
-183.064 -424.519 0.
-389.836 -1007.23 0.
-27.3686 -40.6155 0.
-24.5957 -31.742 0.
-413.433 -1025.84 0.
0.126328 0.172732 0.
-3.80759 -6.34836 0.
-295.338 -614.057 0.
-15.7562 -22.4283 0.
-326.038 -672.139 0.
-11.2503 -19.8583 0.
-10.9304 -14.3132 0.
-29.5781 -37.0342 0.
-0.161344 -0.0949824 0.
-7.64023 -8.4878 0.
-63.7254 -114.31 0.
9.5757e-06 0.107102 0.
-0.0152703 -0.506137 0.
-145.83 -128.298 0.
-146.805 -140.141 0.
-181.723 -292.161 0.
2.55926 7.08639 0.
-1.05497 -2.68847 0.
2.15691 5.81362 0.
-1506.51 -3658.51 0.
5.72327 15.7929 0.
-0.00377878 -1.26841 0.
-0.00376171 -12.1139 0.
-396.809 -1057.59 0.
-0.377601 -27.0587 0.
-164.396 -454.908 0.
-90.0582 -248.46 0.
-0.0630531 -45.4561 0.
-427.013 -1150.73 0.
26.7051 73.6651 0.
-636.24 -1761.83 0.
22.6781 62.7257 0.
-0.116167 -86.8008 0.
1.32665 3.67263 0.
-173.099 -479.28 0.
-618.111 -1712.05 0.
-0.0153572 -130.713 0.
-867.179 -2303.78 0.
-0.598199 -114.009 0.
-19.4843 -137.459 0.
41.9539 57.0158 0.
35.7116 74.7996 0.
48.3263 123.339 0.
-1310.34 -3587.62 0.
-22.7566 -62.7438 0.
22.4369 62.0452 0.
-5.23997 -14.405 0.
-196.477 -542.012 0.
-289.463 -801.723 0.
-205.926 -568.542 0.
4.4912 12.3854 0.
-19.3047 -52.1634 0.
27.4084 75.665 0.
13.5002 36.6325 0.
17.0264 46.5186 0.
-150.212 -413.544 0.
-5.88795 -16.3074 0.
-204.213 -530.814 0.
-0.0593197 -12.3144 0.
8.91198 24.4806 0.
-26.288 -72.1127 0.
-134.51 -360.668 0.
5.01465 13.8148 0.
-0.724819 -7.67734 0.
-0.113579 -12.6323 0.
1.98429 5.38765 0.
0.0046707 4.19379 0.
-1.66727 -3.04469 0.
0.253433 0.805941 0.
-125.386 -323.22 0.
-1640.46 -4495.33 0.
-44.5926 -121.432 0.
-1658.79 -2506.56 0.
-30.1588 -62.2835 0.
-33.4926 -67.3917 0.
-1643.08 -4300.42 0.
-23.6904 -57.1995 0.
-27.4467 -58.0327 0.
-1329.79 -3508.22 0.
-28.4017 -58.3896 0.
-967.603 -2223.51 0.
-416.169 -915.642 0.
-22.801 -46.1406 0.
-841.002 -2126.36 0.
-394.155 -966.14 0.
-28.9277 -16.2248 0.
-584.491 -1438.06 0.
-362.816 -857.385 0.
-147.933 -269.914 0.
-487.831 -995.836 0.
-432.496 -834.688 0.
-146.065 -263.091 0.
-357.125 -781.53 0.
-488.579 -1125.61 0.
-68.7049 -80.7183 0.
-340.665 -854.376 0.
-627.387 -1618.53 0.
-14.0653 -12.2203 0.
-353.443 -875.435 0.
-951.541 -2437.35 0.
-0.653733 -1.5359 0.
-369.225 -776.913 0.
-1054.12 -2376.71 0.
-11.8746 -31.799 0.
-1486.68 -3594.14 0.
-0.217206 -0.407251 0.
-0.173536 -0.49252 0.
-1763.39 -4713.67 0.
-0.237387 -0.422177 0.
0.138723 0.151633 0.
-1520.05 -2784.95 0.
-0.014112 -2.55627 0.
-1399.22 -3872.76 0.
-286.956 -199.426 0.
-270.737 -180.574 0.
-305.082 -330.92 0.
3.51617 9.5617 0.
3.30603 8.96951 0.
0.84503 2.2856 0.
-21.5667 -56.0813 0.
-0.000269846 -5.40419 0.
-1209.66 -3196.93 0.
7.26779 20.1263 0.
-126.186 -341.536 0.
-0.507527 -33.1874 0.
-862.656 -2352.06 0.
-87.6198 -241.614 0.
6.26962 17.3431 0.
-218.852 -592.137 0.
-10.7237 -29.5236 0.
22.6576 62.2392 0.
-160.065 -442.816 0.
-19.3338 -53.3544 0.
-230.878 -638.709 0.
-257.898 -713.5 0.
-226 -625.975 0.
32.1749 89.0966 0.
-13.5422 -37.3103 0.
-345.612 -937.944 0.
33.3913 67.7028 0.
107.148 186.713 0.
-304.921 -578.561 0.
-439.17 -1083.69 0.
-198.784 -542.112 0.
-28.6543 -78.9142 0.
-290.378 -789.571 0.
36.1997 99.6428 0.
-212.635 -586.739 0.
-550.807 -1525.62 0.
-867.585 -2395.08 0.
-18.8856 -52.0604 0.
-4.57328 -12.361 0.
-501.889 -1384.21 0.
8.16274 22.3708 0.
-49.7515 -135.513 0.
16.4474 42.292 0.
-0.803613 -2.22495 0.
-79.0134 -209.437 0.
-0.0140114 -9.09974 0.
-860.514 -2300.86 0.
11.6248 31.7496 0.
-129.96 -357.029 0.
-0.00147486 -1.62355 0.
-0.294297 -5.01671 0.
4.60646 12.2689 0.
-1823.09 -3722.08 0.
2.32323 6.02249 0.
-1586.69 -3449.71 0.
-0.0169817 -1.80208 0.
0.16322 0.434603 0.
-107.711 -293.293 0.
0.479999 1.32767 0.
-14.9358 -36.8862 0.
-2.17725 -5.64652 0.
-11.3821 -29.3963 0.
-16.6493 -44.2014 0.
-18.6035 -45.5646 0.
-28.5168 -67.456 0.
-225.879 -476.886 0.
-47.3659 -71.2915 0.
-262.403 -505.484 0.
-25.5544 -33.3384 0.
-18.4982 -44.3279 0.
-395.109 -1005.44 0.
-28.3931 -33.9796 0.
-19.55 -14.879 0.
-352.985 -832.803 0.
-150.283 -282.681 0.
-21.7291 -10.8748 0.
-294.155 -546.931 0.
-244.786 -424.666 0.
-70.6759 -40.6506 0.
-184.096 -342.362 0.
-282.376 -616.527 0.
-28.1073 -40.1419 0.
-87.1127 -115.231 0.
-331.948 -796.114 0.
-5.69636 -8.30021 0.
-10.7898 -11.1038 0.
-343.782 -867.338 0.
-1.40629 -3.03347 0.
-10.0624 -11.6883 0.
-165.413 -307.292 0.
-5.49329 -13.8256 0.
-7.61616 -16.8458 0.
0.156556 0.451666 0.
0.329798 0.60758 0.
-43.2806 -119.65 0.
-0.0687952 -0.333595 0.
0.277434 0.381968 0.
-0.55059 -0.629879 0.
-0.0575566 -3.91084 0.
0.00401139 0.725047 0.
-291.835 -675.87 0.
-366.037 -678.669 0.
-765.147 -2083.06 0.
4.41498 11.6323 0.
-0.00671387 -8.74783 0.
1.23554 3.35162 0.
1.51203 3.96563 0.
3.79486 10.5039 0.
2.3191 6.29309 0.
-187.515 -516.64 0.
-160.058 -437.461 0.
-0.500066 -29.9233 0.
17.0073 46.9356 0.
-447.165 -1233.31 0.
-0.00548656 -57.6959 0.
7.21571 19.9683 0.
-304.585 -836.774 0.
-16.1314 -44.1228 0.
-886.533 -2452.78 0.
-19.0259 -52.4787 0.
-520.11 -1437.47 0.
22.3954 61.9318 0.
33.6062 93.0824 0.
-289.652 -802.135 0.
26.7022 73.5209 0.
-100.681 -270.382 0.
-22.4828 -125.175 0.
93.8404 160.559 0.
-1861.81 -4199.96 0.
41.0677 107.986 0.
-0.00347117 -98.2538 0.
2.87485 7.90503 0.
-861.109 -2337.19 0.
6.9054 19.0668 0.
-283.904 -783.627 0.
-15.6929 -43.0631 0.
-10.4397 -28.796 0.
-9.68081 -26.6737 0.
9.24538 24.9975 0.
-140.164 -380.631 0.
1.81652 4.96952 0.
-413.892 -1123.23 0.
5.05858 13.5703 0.
-109.969 -303.926 0.
-51.3121 -138.021 0.
-346.367 -940.72 0.
-0.489847 -25.6286 0.
10.773 29.283 0.
-290.262 -803.805 0.
-0.0192037 -2.49122 0.
-972.67 -2527.21 0.
0.00128007 0.738164 0.
3.02366 7.57079 0.
-0.0605675 -3.06413 0.
0.640431 1.56537 0.
1.16227 3.17763 0.
1.16554 3.15432 0.
-25.5578 -70.6861 0.
0.000955867 0.283468 0.
-5.13981 -14.2273 0.
0.163844 0.451027 0.
-7.20615 -19.8077 0.
-12.9279 -33.4842 0.
-21.8462 -52.223 0.
-31.9281 -81.1161 0.
-72.7559 -92.5813 0.
-70.368 -79.5351 0.
-32.0939 -38.1283 0.
-41.1132 -40.441 0.
-38.1305 -55.1699 0.
-28.7606 -56.1156 0.
-24.4457 -30.7606 0.
-16.1555 -14.8624 0.
-173.091 -316.792 0.
-40.2496 -17.4605 0.
-22.3935 -11.2068 0.
-189.448 -318.901 0.
-154.111 -228.328 0.
-10.4223 -4.25427 0.
-96.6779 -82.9457 0.
-158.014 -257.986 0.
-57.8231 -50.3841 0.
-40.9706 -29.0514 0.
-127.383 -155.297 0.
-7.00226 -8.52833 0.
-7.14771 -8.33627 0.
-12.6395 -12.01 0.
-17.1694 -11.041 0.
-34.0735 -24.4625 0.
-68.1205 -75.3546 0.
-0.126405 -0.355864 0.
-0.341037 -0.463277 0.
-0.0204857 -0.174543 0.
0.0212848 0.191856 0.
0.193385 0.445048 0.
-0.128529 -0.703844 0.
-0.198358 -0.523262 0.
0.0174846 0.0277428 0.
0.0328173 2.06622 0.
0.024233 2.17141 0.
-113.411 -304.425 0.
-194.985 -439.935 0.
-0.0136338 -3.22433 0.
-0.275601 -14.6063 0.
-438.86 -1091.92 0.
-1137.15 -2778.36 0.
-0.204421 -9.56259 0.
-0.0228112 -18.0155 0.
7.17506 19.6481 0.
-129.229 -357.637 0.
-394.39 -1071.12 0.
13.4282 35.6381 0.
5.6182 15.492 0.
-70.7822 -196.037 0.
-6.36449 -17.628 0.
-608.114 -1684.05 0.
-1008.62 -2765.41 0.
5.74211 15.6251 0.
-403.578 -1117.15 0.
-157.22 -433.388 0.
5.20606 14.0523 0.
-45.8878 -126.84 0.
-23.7618 -65.0283 0.
-863.026 -2390.19 0.
33.1401 91.1562 0.
40.7522 112.311 0.
0.0646165 32.7366 0.
-23.0269 -51.9023 0.
-1.3226 -61.8536 0.
-6.81345 -17.6423 0.
-11.7036 -32.4072 0.
-426.404 -1170 0.
-416.908 -1154.24 0.
-14.5966 -40.304 0.
-532.729 -1470.94 0.
30.126 82.5001 0.
-16.2862 -44.8502 0.
-0.842766 -81.5811 0.
-390.452 -1056.23 0.
-11.2805 -30.0374 0.
-11.6016 -31.6803 0.
-373.398 -1009.24 0.
23.8303 63.9023 0.
-193.942 -534.431 0.
-0.777274 -27.6308 0.
-251.943 -692.225 0.
-0.500863 -22.8391 0.
-0.271836 -27.1714 0.
-525.527 -1441.28 0.
3.86555 10.7068 0.
6.39999 17.2551 0.
-4.35765e-05 -0.145021 0.
2.57691 6.58967 0.
3.16569 8.48303 0.
0.00187728 1.03964 0.
-1405.73 -3298.51 0.
1.8998 5.23277 0.
-1327.77 -3005.91 0.
-3.71523 -10.1219 0.
-1500.79 -2841.22 0.
-51.0783 -131.855 0.
-10.0844 -25.015 0.
-1571.72 -4186.62 0.
-10.6474 -23.6229 0.
-5.13048 -14.0778 0.
-1370.41 -3262.14 0.
-55.2443 -65.9366 0.
-1083.61 -2498.5 0.
-357.966 -773.415 0.
-32.1324 -23.5211 0.
-1007.42 -2595.45 0.
-269.776 -647.283 0.
-20.0019 -15.4337 0.
-719.773 -1854.93 0.
-368.411 -918.136 0.
-63.988 -47.9427 0.
-526.138 -1271.34 0.
-447.33 -1076.46 0.
-87.3418 -81.0456 0.
-380.954 -882.404 0.
-591.792 -1464.05 0.
-2.12639 -3.76698 0.
-319.763 -712.593 0.
-829.469 -2048.51 0.
-10.8582 -7.8354 0.
-236.946 -524.808 0.
-1153.32 -2990.69 0.
-17.8232 -6.49472 0.
-292.489 -576.485 0.
-1046.04 -2335.08 0.
-0.0939636 -0.191996 0.
-1383.3 -3578.98 0.
0.14906 0.333702 0.
-0.0718309 -0.150612 0.
-1125.98 -2693.66 0.
-4.4269 -9.34392 0.
-1559.11 -3851.66 0.
-0.150454 -0.416379 0.
-6.68955 -18.1659 0.
-934.55 -2567.7 0.
-303.329 -727.749 0.
-69.2633 -182.548 0.
-0.0290409 -7.6904 0.
5.74237 15.2861 0.
5.16211 14.1786 0.
-171.179 -440.369 0.
13.1932 36.4327 0.
-649.187 -1769.32 0.
-0.403938 -30.8884 0.
-67.84 -187.893 0.
-127.153 -345.854 0.
-0.959393 -48.449 0.
-1.49538 -4.1196 0.
-81.9725 -226.986 0.
17.3597 48.051 0.
-15.7564 -41.7241 0.
2.97338 7.86692 0.
-107.472 -290.65 0.
-133.451 -357.941 0.
-454.74 -1252.63 0.
-2.3909 -6.44968 0.
-442.212 -1221.9 0.
-20.3657 -55.6963 0.
-138.992 -384.963 0.
39.9582 109.746 0.
-22.1738 -60.3119 0.
27.7543 76.8196 0.
11.2156 25.2225 0.
18.059 46.7565 0.
26.5539 67.5619 0.
-140.959 -389.528 0.
-574.659 -1572.17 0.
-0.84681 -116.177 0.
-79.0941 -218.453 0.
-58.7636 -162.307 0.
-15.0699 -41.1778 0.
18.1579 49.9128 0.
-4.26654 -11.5143 0.
-3.62294 -9.80417 0.
14.5531 38.7062 0.
-458.653 -1250.67 0.
-6.09363 -16.394 0.
-30.1757 -80.8891 0.
-400.9 -1100.5 0.
2.32545 6.34211 0.
-190.307 -526.009 0.
-0.273493 -26.9795 0.
-234.641 -618.098 0.
-0.133968 -18.9218 0.
-0.500486 -1.3861 0.
-2.58836 -7.10465 0.
10.1981 28.0205 0.
7.07136 19.2135 0.
-1258.25 -2808.32 0.
4.17258 11.257 0.
-0.100112 -5.45163 0.
-0.00827899 -2.8045 0.
-0.00262463 -1.45151 0.
-0.00357598 -1.46662 0.
-3.76828 -10.3662 0.
-43.4685 -102.572 0.
-14.3799 -29.9266 0.
-31.8117 -66.5412 0.
-4.85845 -12.6411 0.
-8.39104 -20.9729 0.
-35.5282 -44.928 0.
-23.8033 -50.1311 0.
-99.8856 -177.287 0.
-46.186 -71.9399 0.
-25.6304 -23.7846 0.
-220.743 -481.708 0.
-29.5936 -14.8547 0.
-39.6659 -22.3941 0.
-299.362 -747.878 0.
-40.3923 -28.3594 0.
-49.8456 -38.4377 0.
-255.03 -552.963 0.
-180.785 -353.383 0.
-2.1277 -2.56122 0.
-90.1374 -71.6656 0.
-251.969 -529.561 0.
-5.17078 -5.52649 0.
-5.52399 -5.90243 0.
-204.995 -368.008 0.
-21.0618 -12.5149 0.
-19.9841 -7.99842 0.
-226.526 -450.52 0.
-17.2759 -6.3461 0.
-21.9069 -8.5033 0.
-27.9213 -18.3254 0.
0.00852954 0.0307479 0.
-0.0572 -0.259725 0.
-0.0341971 -0.876514 0.
0.314323 0.744705 0.
-0.0634813 -0.142365 0.
-0.24883 -0.603452 0.
-13.7246 -32.8648 0.
0.86409 2.34781 0.
0.3552 0.982736 0.
-22.5402 -61.1231 0.
-0.950516 -2.55335 0.
-1180.03 -2564.36 0.
7.21945 18.5983 0.
-920.224 -2382.2 0.
-0.00208474 -10.8926 0.
4.67684 12.4192 0.
-0.00585038 -18.5957 0.
-327.418 -898.815 0.
10.416 28.6142 0.
-11.681 -32.3016 0.
-57.171 -155.682 0.
-74.013 -202.425 0.
18.47 50.8291 0.
-378.429 -1047.52 0.
-35.9458 -98.7703 0.
8.80393 23.245 0.
25.3269 66.826 0.
-424.64 -1140.19 0.
-41.1772 -110.329 0.
27.8967 76.7908 0.
-5.39478 -14.549 0.
-189.425 -523.313 0.
-7.92723 -21.6702 0.
19.8033 54.0536 0.
-358.882 -983.526 0.
-574.287 -1527.44 0.
33.1927 90.6048 0.
-10.0422 -98.7346 0.
-109.32 -277.556 0.
-8.67884 -95.5768 0.
-460.226 -1266.26 0.
27.2263 75.3548 0.
4.00296 10.9064 0.
-629.966 -1740.48 0.
-20.2055 -54.5813 0.
-274.453 -748.104 0.
10.1052 27.043 0.
-30.0252 -80.9032 0.
-1.28161 -3.46997 0.
27.7671 73.7708 0.
-51.4711 -140.004 0.
3.29147 8.70896 0.
-63.0625 -169.008 0.
0.951178 2.59895 0.
12.0662 32.8519 0.
-92.8821 -257.252 0.
8.17756 21.9142 0.
-301.551 -813.199 0.
4.46316 12.323 0.
-0.00306872 -13.441 0.
6.03174 16.6444 0.
-758.459 -2056.15 0.
-0.00985421 -7.00637 0.
-0.873537 -15.9784 0.
-0.00392771 -1.95513 0.
-0.0724823 -7.57294 0.
4.18772 11.5095 0.
0.481092 1.33227 0.
0.155653 0.430805 0.
0.31912 0.882475 0.
-1653.02 -4277.18 0.
-6.26092 -13.1531 0.
-976.836 -1928.96 0.
-40.5163 -66.6304 0.
-62.8613 -125.823 0.
-1275.74 -3232.46 0.
-29.0051 -14.3213 0.
-937.307 -2020.02 0.
-239.222 -436.576 0.
-29.5102 -25.6432 0.
-1087.57 -2861.93 0.
-147.109 -288.22 0.
-39.5423 -20.8834 0.
-835.576 -2139.15 0.
-299.511 -757.12 0.
-28.5474 -23.7859 0.
-568.53 -1415.08 0.
-488.618 -1229.06 0.
-41.269 -14.9203 0.
-381.968 -890.501 0.
-714.803 -1794.89 0.
-6.47522 -2.38789 0.
-244.629 -504.268 0.
-959.632 -2410.02 0.
-8.79361 -3.27643 0.
-9.07634 -3.9074 0.
-1006.23 -2441.58 0.
-98.2318 -160.031 0.
-1215.96 -2679.96 0.
7.69885e-05 0.417982 0.
-0.00184229 -0.0912348 0.
-1177.46 -3200.4 0.
-0.0202699 -1.72499 0.
-0.0165351 -1.02071 0.
-964.24 -2423.85 0.
-16.32 -41.701 0.
-7.03786 -18.2195 0.
-0.0126557 -0.679493 0.
-0.00494097 -4.61936 0.
-7.40471 -20.4067 0.
0.839596 2.28954 0.
-0.479465 -11.5485 0.
-0.905836 -2.37524 0.
-7.29424 -19.2683 0.
9.82807 27.2212 0.
-0.226033 -23.661 0.
4.08985 11.328 0.
-185.426 -511.167 0.
3.2408 8.89024 0.
-8.99916 -24.8079 0.
-112.941 -307.837 0.
-34.098 -93.3353 0.
7.77942 21.3842 0.
-0.485611 -60.2395 0.
-81.2099 -222.763 0.
3.85907 10.1586 0.
-256.046 -673.983 0.
-387.917 -1033.08 0.
-132.616 -355.074 0.
2.58149 6.78666 0.
-99.4192 -268.092 0.
-0.348406 -0.937972 0.
-500.612 -1368.1 0.
42.1403 115.414 0.
31.4315 87.0566 0.
-16.0152 -44.2614 0.
33.3276 88.301 0.
46.0847 102.865 0.
-105.23 -261.279 0.
-0.492755 -94.6053 0.
37.1326 102.761 0.
31.7471 87.8824 0.
30.2123 82.4121 0.
-15.9625 -43.056 0.
-2.74802 -7.42632 0.
-549.394 -1493.53 0.
8.28567 22.1356 0.
-518.7 -1395.44 0.
-20.6268 -54.2835 0.
10.4439 27.7188 0.
-1.11848 -71.837 0.
9.04607 24.3316 0.
-451.152 -1208.47 0.
-7.47426 -20.1737 0.
-3.65319 -9.92849 0.
-38.4728 -106.487 0.
10.0435 27.4814 0.
-331.446 -907.421 0.
4.59173 12.7177 0.
4.11465 11.3831 0.
-16.4539 -45.1373 0.
-101.073 -278.21 0.
8.65751 23.9768 0.
6.72598 17.3587 0.
9.16659 25.3828 0.
-1271.37 -3071.07 0.
5.51076 14.7417 0.
-1442.56 -2867.96 0.
-40.9842 -94.2 0.
0.632779 1.65814 0.
-31.7833 -82.2853 0.
0.506959 1.04396 0.
-1.32919 -1.0607 0.
-5.81772 -5.13263 0.
-20.0991 -42.707 0.
-50.0509 -74.9365 0.
-0.0708701 -0.134685 0.
-6.74587 -2.62716 0.
-15.1513 -5.52411 0.
-39.1522 -26.9036 0.
-204.051 -473.578 0.
-38.9372 -27.5994 0.
-31.3626 -15.7486 0.
-109.101 -219.39 0.
-23.5892 -12.479 0.
-22.6561 -13.9502 0.
-108.339 -179.133 0.
-37.2685 -13.6979 0.
-48.6887 -17.6342 0.
-17.8788 -7.45727 0.
-101.165 -119.151 0.
-5.37258 -1.94049 0.
-3.42059 -1.25321 0.
-81.683 -34.7683 0.
-10.1576 -3.87283 0.
-8.19431 -3.77194 0.
-8.56788 -4.71433 0.
0.017172 0.0440216 0.
-242.81 -570.891 0.
-0.00149659 -0.842787 0.
0.00170164 0.334093 0.
-0.0266095 -1.03994 0.
0.0031184 0.154706 0.
0.660339 1.72146 0.
0.745324 1.90964 0.
0.966982 2.67714 0.
-1242.26 -3271.43 0.
3.04427 8.40219 0.
-25.9622 -69.572 0.
-1062.99 -2749.29 0.
-0.0691297 -7.42096 0.
-0.339161 -11.7514 0.
3.38982 9.02915 0.
4.03055 10.7875 0.
3.46085 9.57854 0.
-758.109 -2076.21 0.
4.60524 12.7515 0.
-178.712 -493.941 0.
-0.226642 -48.3682 0.
-328.401 -907.236 0.
-199.842 -545.153 0.
-5.5814 -15.289 0.
-105.929 -292.65 0.
13.2571 35.9255 0.
-245.422 -671.89 0.
6.04668 15.6932 0.
-243.097 -638.011 0.
-9.69554 -25.1437 0.
-395.315 -1058.03 0.
-0.747506 -1.96389 0.
-142.445 -384.145 0.
-14.9566 -40.2305 0.
29.0167 76.8799 0.
-637.4 -1751.88 0.
17.1209 47.4101 0.
-0.224717 -97.4674 0.
16.66 44.8467 0.
-227.553 -509.063 0.
-17.8901 -47.4351 0.
3.00522 8.28519 0.
-111.823 -309.708 0.
-325.276 -900.582 0.
-229.205 -625.926 0.
32.3463 87.2787 0.
-411.109 -1111.93 0.
-0.51913 -1.36978 0.
-116.195 -309.897 0.
-332.343 -892.501 0.
29.0319 76.3377 0.
-563.997 -1495.77 0.
3.01091 8.01773 0.
8.0074 21.4789 0.
-94.9286 -254.443 0.
-14.4858 -39.0189 0.
-424.784 -1152.17 0.
-31.6856 -86.7542 0.
-2.21395 -6.05657 0.
-244.904 -676.116 0.
-0.0431329 -28.6071 0.
-445.23 -1214.12 0.
11.593 31.8489 0.
-62.8891 -174.07 0.
6.13379 16.9077 0.
-805.961 -2173.82 0.
-0.0502642 -13.7617 0.
-1.26 -3.22691 0.
-0.013244 -4.8049 0.
-0.277048 -0.598801 0.
-0.175513 -2.85867 0.
-0.0670664 -3.56247 0.
-0.360135 -0.880013 0.
-0.164272 -1.00027 0.
-10.434 -7.41974 0.
-23.9749 -21.1735 0.
-40.636 -57.8064 0.
-22.7999 -36.1591 0.
-0.0775847 -0.479975 0.
0.121383 0.211004 0.
-36.5549 -15.3059 0.
-60.6353 -37.6371 0.
-50.7607 -57.2653 0.
-32.2261 -24.6095 0.
-29.5188 -14.9338 0.
-41.9054 -26.3074 0.
-21.7191 -9.76555 0.
-24.1376 -13.4171 0.
-48.6609 -34.3991 0.
-45.2538 -22.1413 0.
-12.1729 -5.16312 0.
-8.15275 -3.15858 0.
-7.32855 -2.68648 0.
-7.34439 -2.67479 0.
-5.39388 -1.94758 0.
-6.36195 -2.31469 0.
-27.787 -10.4059 0.
-22.1968 -8.67805 0.
-22.7076 -9.25473 0.
0.0338433 0.0602524 0.
0.00649789 0.0374382 0.
-0.0020102 -0.350831 0.
2.85921e-05 0.0610603 0.
0.000284024 0.0259591 0.
-0.0530088 -1.76355 0.
0.0264355 0.687853 0.
0.0546247 1.07692 0.
-0.0252271 -2.15348 0.
-0.324442 -0.892573 0.
0.385566 1.06688 0.
1.05382 2.85549 0.
4.89108 13.4399 0.
-0.197376 -21.8181 0.
-679.82 -1798.68 0.
-540.614 -1427.72 0.
-15.3912 -41.6513 0.
-0.0430979 -35.5241 0.
-9.00095 -24.7478 0.
-27.0142 -74.7881 0.
-543.239 -1503.87 0.
13.9855 38.2437 0.
-250.486 -691.413 0.
-169.495 -461.438 0.
20.7692 57.1716 0.
-175.668 -484.674 0.
12.5082 33.8934 0.
-203.377 -555.469 0.
-6.02451 -15.5684 0.
-277.994 -727.388 0.
-14.1276 -36.6869 0.
-289.79 -775.298 0.
-78.5916 -206.424 0.
-24.6561 -62.5669 0.
-683.9 -1838.5 0.
-1.93694 -100.342 0.
-23.6717 -65.2246 0.
-59.1853 -163.669 0.
-0.0912956 -89.398 0.
28.5093 76.0359 0.
12.3004 29.2955 0.
-183.483 -485.247 0.
-10.4898 -29.0403 0.
-270.068 -746.218 0.
-489.975 -1356.81 0.
12.5476 33.2902 0.
-423.151 -1142.49 0.
-302.381 -818.492 0.
17.8853 47.1201 0.
-320.995 -854.679 0.
7.36744 19.0068 0.
0.226077 0.594023 0.
21.0207 54.2106 0.
2.39695 6.36446 0.
-359.485 -961.425 0.
13.4896 35.1723 0.
-34.0555 -89.5078 0.
-138.231 -374.262 0.
-411.35 -1126.22 0.
4.57108 12.5018 0.
-130.998 -362.79 0.
-0.397159 -1.0984 0.
-257.694 -703.762 0.
-6.20296 -17.0643 0.
-102.65 -284.218 0.
-113.055 -310.76 0.
-119.333 -326.77 0.
0.339409 0.939661 0.
0.899977 2.39364 0.
-0.00145877 -24.8727 0.
0.349977 16.6786 0.
-0.173218 -3.42797 0.
-0.80381 -4.70343 0.
-1091.7 -2698.09 0.
0.00662608 0.771775 0.
-1109.82 -2070.68 0.
-38.0667 -63.1336 0.
-17.8619 -42.8044 0.
-1185.1 -3142.29 0.
-20.3105 -52.0111 0.
-0.0107119 -0.0732762 0.
-1362.5 -2818.88 0.
-24.2556 -22.6247 0.
-875.031 -2235.45 0.
-48.6392 -49.8942 0.
-35.8715 -45.6202 0.
-907.901 -2352.13 0.
-155.043 -305.81 0.
-50.9476 -49.8855 0.
-601.175 -1503.93 0.
-446.445 -1155.46 0.
-41.67 -19.9679 0.
-225.013 -499.428 0.
-797.56 -2081.59 0.
-0.386527 -0.000152068 0.
-0.140604 -0.0509382 0.
-999.381 -2437.4 0.
0.0469867 0.576867 0.
-3.01264 -1.28115 0.
-1163.03 -2444.75 0.
0.32785 0.0186501 0.
-1057.57 -2595.79 0.
0.286364 0.870099 0.
0.00059364 0.124583 0.
-1109.31 -3026.57 0.
0.79943 2.18401 0.
0.0031636 0.0081444 0.
-1111.59 -2363.63 0.
-0.0524555 -8.53539 0.
-594.582 -1646.63 0.
3.03814 8.41412 0.
-0.0356372 -5.92926 0.
0.00345514 1.06494 0.
5.45129 14.788 0.
7.24107 19.6579 0.
-281.885 -769.732 0.
11.3287 31.3677 0.
-0.0445494 -19.105 0.
-0.980508 -2.67393 0.
-41.2075 -113.822 0.
-369.569 -1008.44 0.
5.22772 14.2713 0.
6.40444 17.3078 0.
-195.041 -529.673 0.
13.3544 36.682 0.
-450.308 -1240.4 0.
-6.4951 -17.5985 0.
-18.7289 -51.0197 0.
-21.4207 -55.1015 0.
-160.532 -413.889 0.
-130.872 -340.311 0.
-10.9266 -28.8411 0.
-112.414 -295.287 0.
5.83983 14.8536 0.
-405.088 -1088.4 0.
-5.22492 -13.8271 0.
-1.25841 -99.5809 0.
-128.439 -354.106 0.
-134.276 -371.757 0.
-8.39247 -22.137 0.
-1.78161 -4.76267 0.
-457.389 -1205.21 0.
-2.83128 -7.83682 0.
-80.0058 -220.929 0.
-5.65646 -15.5408 0.
-5.46168 -14.508 0.
-373.751 -1010.25 0.
-16.387 -42.7847 0.
-82.4111 -216.797 0.
-56.9 -151.314 0.
-8.52657 -22.0343 0.
-155.509 -408.344 0.
-5.76489 -14.8717 0.
-180.183 -476.977 0.
-13.5148 -35.1098 0.
21.2842 55.387 0.
-525.155 -1377.23 0.
20.9881 55.2321 0.
-39.3186 -103.949 0.
-140.976 -385.512 0.
-281.213 -759.821 0.
-3.64927 -10.0691 0.
-266.853 -730.165 0.
5.71233 15.7319 0.
-560.501 -1547.93 0.
-9.4006 -25.8549 0.
-133.658 -369.195 0.
-0.0110032 -17.5408 0.
-0.365184 -34.9594 0.
-810.776 -2111.62 0.
-0.373495 -22.5122 0.
-1079.25 -2294.55 0.
-0.568175 -10.5781 0.
-0.00326933 -0.239236 0.
2.76809 7.51783 0.
-4.31328 -9.962 0.
-0.000501773 -0.0747795 0.
-0.0302517 -0.207076 0.
-38.5764 -103.547 0.
-1.38457 -1.31376 0.
-1.06331 -0.792208 0.
-4.29535 -6.58557 0.
-2.20891 -3.6735 0.
-114.547 -171.307 0.
-69.5286 -70.2929 0.
-38.6165 -45.8702 0.
-33.5056 -41.3124 0.
-30.094 -33.6856 0.
-42.5679 -39.5341 0.
-47.0095 -34.1309 0.
-29.5042 -15.0764 0.
-28.7196 -11.416 0.
-6.06471 -2.19457 0.
-0.00952504 -9.10537e-05 0.
-0.474435 -0.172059 0.
0.0245661 0.00894616 0.
0.439145 0.160833 0.
-0.0124601 -0.00108465 0.
0.0745626 0.445103 0.
-7.03389 -3.44641 0.
0.277913 0.143053 0.
0.215787 0.20177 0.
0.0219441 1.2109 0.
0.0160304 1.48865 0.
-0.00317376 -1.59845 0.
0.00209348 1.22844 0.
0.415538 1.13732 0.
0.263797 3.47716 0.
-0.164792 -8.75255 0.
-0.705933 -1.95015 0.
2.43697 6.69074 0.
-1013.31 -2590.02 0.
2.23002 5.84317 0.
-0.189133 -22.05 0.
0.0908155 5.05353 0.
-79.2441 -219.191 0.
-2.32033 -6.4266 0.
-335.188 -926.94 0.
16.2505 43.9656 0.
-92.1036 -253.408 0.
-55.6883 -151.98 0.
-324.527 -885.759 0.
-7.06252 -19.0265 0.
-262.276 -710.386 0.
7.20647 19.6888 0.
-150.763 -414.416 0.
-2.71851 -7.36571 0.
-3.09171 -8.33834 0.
-250.473 -640.922 0.
-200.837 -518.725 0.
-482.048 -1254.72 0.
16.5657 43.6279 0.
-8.70885 -22.6558 0.
-614.814 -1566.09 0.
-26.3604 -67.721 0.
-2.97468 -7.87053 0.
26.6424 72.0044 0.
23.7929 62.0699 0.
3.32684 9.21382 0.
-3.85047 -10.0281 0.
-11.0845 -29.2809 0.
-0.170527 -62.0334 0.
-0.0231223 -85.1774 0.
3.37049 9.15386 0.
4.03113 11.1093 0.
-588.622 -1565.27 0.
15.6563 39.757 0.
-1.04026 -2.71656 0.
-490.013 -1286.77 0.
-6.12575 -15.4455 0.
-399.714 -1033.88 0.
0.257826 0.650219 0.
-32.6739 -84.3351 0.
-384.59 -1014.5 0.
2.19371 5.70225 0.
-9.49749 -24.6629 0.
-13.8549 -35.2114 0.
-7.7187 -20.2736 0.
-112.483 -296.805 0.
8.61658 23.3013 0.
20.3427 54.9145 0.
-92.4732 -254.281 0.
11.3077 31.0076 0.
-86.6959 -240.042 0.
-1.52896 -4.23331 0.
6.04246 16.6263 0.
2.8859 7.89307 0.
-337.119 -930.611 0.
-3.41538 -9.44578 0.
-81.6148 -218.528 0.
-0.123076 -24.7701 0.
7.31528 17.0611 0.
5.40481 14.369 0.
-0.00581252 -1.08362 0.
3.57858 9.72221 0.
0.00313638 0.210713 0.
0.516991 1.41537 0.
-154.66 -260.839 0.
-575.833 -1447.93 0.
-0.183177 -0.0897171 0.
-6.38667 -8.42043 0.
-932.246 -2468.08 0.
-15.6392 -15.4434 0.
-906.299 -1884.58 0.
-25.0978 -19.7745 0.
-47.2122 -40.9631 0.
-862.696 -2172.15 0.
-41.5299 -39.3695 0.
-30.3613 -32.78 0.
-553.943 -1377.02 0.
-410.042 -1006.78 0.
-62.945 -56.1328 0.
-126.671 -234.013 0.
-749.246 -1952.17 0.
-20.0218 -10.1063 0.
-19.072 -8.41628 0.
-981.49 -2282.62 0.
-1.22773 -0.627197 0.
-0.369984 -0.160632 0.
-988.338 -1835.02 0.
-0.0110705 -0.225333 0.
-886.539 -2427.87 0.
0.137127 0.373275 0.
-0.0482494 -0.133504 0.
-593.913 -1588.55 0.
0.0200045 1.50211 0.
-0.000180136 -3.09811 0.
-1.08665 -11.8395 0.
4.05387 10.432 0.
-0.566314 -1.54533 0.
2.38326 6.55971 0.
-0.296268 -12.9842 0.
-0.208951 -21.1662 0.
-652.747 -1712.16 0.
7.53408 20.8372 0.
1.704 4.7164 0.
8.5836 23.7747 0.
-237.419 -657.024 0.
-136.055 -373.417 0.
-192.764 -527.518 0.
13.7262 37.4727 0.
-154.099 -420.662 0.
-18.1819 -48.3797 0.
-254.812 -688.205 0.
-10.241 -27.9465 0.
21.3308 58.2819 0.
-225.081 -609.744 0.
2.65743 7.16765 0.
-131.236 -334.124 0.
-144.635 -373.875 0.
-0.326075 -0.825856 0.
-327.228 -860.214 0.
18.6344 48.3663 0.
5.02947 12.8569 0.
-22.4563 -57.0564 0.
-5.916 -14.6726 0.
-550.209 -1495.71 0.
25.5001 67.0143 0.
12.4502 34.1589 0.
23.3199 61.6149 0.
-0.927266 -77.1745 0.
14.0236 38.7394 0.
0.89918 2.49055 0.
3.0932 8.44312 0.
-44.2368 -122.209 0.
33.4145 83.2492 0.
0.358561 0.910596 0.
-702.263 -1835.21 0.
4.85667 11.9773 0.
-253.526 -637.852 0.
-271.971 -705.143 0.
-2.57336 -62.6976 0.
-407.537 -1053.09 0.
13.41 34.1918 0.
-195.961 -509.366 0.
-120.234 -311.524 0.
3.37792 8.5796 0.
-128.596 -337.07 0.
-63.5871 -164.564 0.
20.9061 56.4794 0.
11.2914 30.4494 0.
-174.656 -478.183 0.
-32.2896 -88.0601 0.
-109.101 -302.189 0.
4.50439 12.4573 0.
-6.79068 -18.6931 0.
6.60484 18.2911 0.
-222.559 -615.111 0.
-0.0102466 -38.9247 0.
-36.9212 -100.829 0.
2.69936 7.46888 0.
-0.561131 -12.1355 0.
2.47606 6.46011 0.
-1017.23 -2368.36 0.
2.45796 6.07175 0.
-0.150388 -7.45231 0.
-1275.71 -2928.89 0.
1.92385 5.20314 0.
-0.405776 -0.18623 0.
0.397168 0.311498 0.
0.0352129 0.0450552 0.
-41.4705 -68.9358 0.
-15.667 -15.0534 0.
-9.62594 -7.3949 0.
-4.0046 -3.4335 0.
-36.5902 -33.8428 0.
-30.3395 -29.4071 0.
-15.3079 -19.9582 0.
-10.8884 -19.2422 0.
-42.7012 -38.0953 0.
-31.2439 -24.5068 0.
-24.4316 -15.7209 0.
-18.041 -9.53946 0.
-12.7001 -6.36374 0.
-11.073 -5.75456 0.
-6.47341 -2.7954 0.
-5.27993 -2.01246 0.
-0.079371 -0.0159106 0.
-0.343857 -0.125222 0.
-0.24497 -0.141673 0.
0.255236 0.561696 0.
-0.0193578 -0.772812 0.
-0.0370465 -2.41256 0.
0.833551 2.30426 0.
0.229475 0.631852 0.
0.474299 1.31051 0.
-997.45 -2525.94 0.
5.02719 13.552 0.
0.963189 2.66783 0.
-574.559 -1557.17 0.
-0.011984 -5.89723 0.
7.84883 20.8128 0.
7.4084 20.3792 0.
-61.895 -165.898 0.
10.5907 29.2891 0.
-522.459 -1447.08 0.
12.5166 34.6616 0.
-143.808 -398.161 0.
-2.36243 -6.48162 0.
-194.056 -533.141 0.
-7.26812 -19.8495 0.
-182.337 -497.938 0.
-29.7783 -79.1817 0.
-75.4353 -199.836 0.
18.3259 49.9478 0.
4.4607 12.1736 0.
-80.8942 -219.183 0.
-156.326 -421.641 0.
4.54236 11.2178 0.
-402.407 -1040.41 0.
13.131 33.2737 0.
-226.937 -595.005 0.
18.9457 49.0591 0.
34.0126 84.2354 0.
18.5305 47.2197 0.
21.9485 54.8557 0.
-10.3837 -26.9108 0.
-8.34324 -22.0942 0.
-0.108769 -65.1316 0.
30.2543 82.7665 0.
24.9674 67.0736 0.
10.1485 28.0977 0.
-181.629 -502.539 0.
-562.23 -1540.88 0.
6.01236 14.5559 0.
-45.2127 -113.538 0.
19.2038 48.7863 0.
-4.95434 -12.1128 0.
6.73959 16.595 0.
-226.392 -568.624 0.
25.1748 61.9621 0.
-2.16869 -5.48029 0.
27.4116 68.5035 0.
-14.4536 -36.8892 0.
-24.7941 -64.5492 0.
15.6838 39.4717 0.
-229.098 -581.648 0.
-145.736 -381.238 0.
-79.7229 -206.459 0.
-125.113 -337.66 0.
16.491 44.4241 0.
-48.9481 -134.22 0.
-5.84437 -15.9604 0.
-191.902 -531.386 0.
16.6343 45.9216 0.
-333.678 -924.142 0.
-8.65361 -23.9656 0.
-102.545 -283.684 0.
-3.9975 -11.0708 0.
-62.6796 -172.957 0.
2.36206 6.54044 0.
-696.005 -1832.69 0.
3.823 10.2812 0.
3.02215 7.2846 0.
3.00175 7.68981 0.
-0.13728 -12.8813 0.
2.18628 5.68404 0.
3.68498 10.1718 0.
-0.427662 -0.367968 0.
-0.27883 -0.392913 0.
-0.0289998 -0.122594 0.
-31.3039 -57.0309 0.
-15.7918 -15.2712 0.
0.219195 0.178215 0.
-4.42549 -4.08244 0.
-29.7629 -29.5639 0.
-28.2969 -27.438 0.
-17.03 -21.1445 0.
-9.25026 -15.9417 0.
-42.6957 -37.1848 0.
-29.9458 -22.9988 0.
-23.2549 -13.5104 0.
-18.1378 -8.70059 0.
-12.736 -5.81661 0.
-5.97434 -3.25464 0.
-0.104868 -0.00670329 0.
0.110109 0.000401372 0.
-0.20913 -0.0410861 0.
-0.328234 -0.106167 0.
-0.256848 -0.124722 0.
0.491316 1.00852 0.
-0.0359346 -0.621462 0.
-0.0743507 -3.23342 0.
0.633343 1.73621 0.
-0.000165532 -2.72749 0.
-0.00103107 -1.8519 0.
2.60989 7.03285 0.
-0.0914349 -6.67541 0.
-0.00744572 -15.5814 0.
9.64289 26.5487 0.
0.0100444 0.0271557 0.
-474.393 -1253.72 0.
10.3293 28.5907 0.
-40.2555 -109.683 0.
7.37337 20.3903 0.
-97.6716 -270.497 0.
-2.89374 -7.98806 0.
-38.6966 -107.17 0.
-10.5748 -28.9961 0.
-154.599 -424.565 0.
-0.329307 -0.896592 0.
-6.9949 -19.1056 0.
-27.0184 -71.7934 0.
-65.6811 -173.87 0.
-1.36755 -3.72235 0.
-329.781 -898.766 0.
6.04797 16.1448 0.
-245.035 -660.912 0.
-2.54167 -6.27364 0.
-1.20666 -3.02421 0.
-143.534 -363.929 0.
-11.7959 -29.4712 0.
-114.459 -295.699 0.
22.2028 54.8208 0.
32.2072 77.3421 0.
-836.898 -2109.64 0.
15.5264 40.4176 0.
28.6316 72.474 0.
-666.244 -1844.33 0.
4.03489 11.1167 0.
-48.3349 -129.546 0.
-91.6233 -253.742 0.
13.5376 36.7151 0.
8.48605 22.6483 0.
-3.80453 -67.3283 0.
-724.84 -1836.39 0.
-100.988 -256.782 0.
-68.2649 -166.987 0.
-424.749 -1043.6 0.
-17.1393 -40.2813 0.
-169.713 -416.41 0.
-124.22 -314.461 0.
-8.05062 -20.0564 0.
0.524713 1.34124 0.
12.4798 31.8031 0.
-2.21166 -5.5641 0.
-180.118 -457.092 0.
15.0793 38.845 0.
-66.7051 -172.87 0.
-141.415 -381.248 0.
13.7701 37.0188 0.
-72.8884 -200.072 0.
4.87082 13.3187 0.
-115.918 -320.704 0.
1.32054 3.64792 0.
-176.166 -487.906 0.
5.48297 15.1851 0.
-18.3797 -50.8807 0.
1.29973 3.60002 0.
-505.032 -1398.37 0.
-1.04188 -2.88362 0.
4.91076 13.1873 0.
10.5913 28.9993 0.
-0.000590617 -3.52099 0.
-0.230861 -10.0056 0.
4.46679 12.2089 0.
-454.067 -1236.54 0.
4.37834 12.0955 0.
-957.407 -1676.77 0.
-14.9545 -25.4074 0.
0.732488 1.45405 0.
-841.036 -2228.83 0.
-7.56145 -15.4342 0.
-787.529 -1402.54 0.
-31.7342 -38.9892 0.
-25.2993 -29.5138 0.
-756.955 -1860.41 0.
-26.9597 -25.7839 0.
-11.7429 -9.44601 0.
-432.729 -1110.12 0.
-355.718 -925.256 0.
-47.9628 -59.7021 0.
-63.7727 -111.08 0.
-645.078 -1618.34 0.
-53.8423 -36.6628 0.
-22.3113 -12.4199 0.
-813.658 -1959.68 0.
-0.0252655 -0.0146901 0.
0.389541 0.267401 0.
-786.123 -1387.98 0.
0.00810032 0.08182 0.
-733.229 -1995.01 0.
0.00358741 0.432145 0.
-0.00509145 -0.431502 0.
-685.438 -1631.82 0.
1.15584 3.11686 0.
2.34411 6.43466 0.
7.02467 18.7672 0.
-0.00809763 -6.07807 0.
-0.0058503 -30.2964 0.
-0.102263 -22.2051 0.
0.600752 1.65994 0.
-257.622 -713.325 0.
-19.3356 -53.3991 0.
6.34761 17.5529 0.
4.70001 12.9164 0.
15.5276 42.7232 0.
-320.933 -878.762 0.
-3.24608 -8.89539 0.
-101.666 -279.063 0.
7.17771 19.5034 0.
-9.65056 -26.0726 0.
-61.6873 -163.801 0.
-153.556 -406.248 0.
-5.72986 -15.2213 0.
-391.966 -1066.66 0.
-101.715 -270.466 0.
0.163633 0.396449 0.
-260.237 -641.67 0.
24.7351 61.8357 0.
-8.4502 -21.4569 0.
-0.987024 -2.45852 0.
3.55889 8.67559 0.
-852.167 -2096.69 0.
9.80553 23.469 0.
-42.4756 -108.08 0.
18.2701 44.4612 0.
25.0778 63.8286 0.
-10.3445 -28.4526 0.
21.2588 58.8172 0.
-241.093 -644.332 0.
-0.0493738 -63.3228 0.
-1.501 -70.7792 0.
-10.6351 -28.521 0.
-383.202 -946.258 0.
-276.714 -707.558 0.
30.225 71.5275 0.
-401.654 -983.716 0.
5.83806 13.2089 0.
-5.49979 -13.1983 0.
-525.482 -1285.39 0.
5.84135 14.3523 0.
-177.927 -441.73 0.
-8.95848 -22.9385 0.
-11.6873 -29.8088 0.
-80.2204 -201.778 0.
-11.6135 -28.6983 0.
-0.0953279 -0.245769 0.
-268.488 -696.33 0.
8.64909 22.9106 0.
16.1102 43.1595 0.
-173.93 -477.881 0.
-11.4571 -31.3654 0.
-109.578 -302.034 0.
3.87017 10.6666 0.
-44.9535 -124.504 0.
1.91678 5.30867 0.
-312.201 -861.927 0.
-3.78073 -10.4288 0.
-0.0831356 -39.7086 0.
-0.411261 -1.13757 0.
10.1377 27.8736 0.
2.91376 8.04873 0.
-0.0779402 -29.0856 0.
-702.055 -1840.1 0.
-0.0632469 -18.8603 0.
4.61407 12.7686 0.
4.61855 12.6928 0.
-0.161637 -0.289117 0.
0.809383 1.6187 0.
-0.0798113 -0.967608 0.
-1.43965 -3.30178 0.
-0.0345669 -1.06284 0.
-30.2532 -41.1414 0.
-8.39953 -11.0921 0.
-6.94722 -8.48263 0.
-54.5772 -67.0215 0.
-17.6579 -16.7849 0.
-16.2418 -13.4545 0.
-32.3791 -25.1448 0.
-12.0151 -7.41236 0.
-19.9469 -15.169 0.
-18.2199 -13.2418 0.
-32.3155 -30.6766 0.
-49.224 -33.4354 0.
-14.1825 -7.66478 0.
-0.0880146 -0.0218117 0.
-0.301292 -0.290354 0.
0.073071 0.0705716 0.
0.0478369 0.0352863 0.
0.1057 1.3589 0.
0.00448439 0.173142 0.
-0.0451477 -2.72112 0.
0.000354579 0.335487 0.
0.740495 1.94164 0.
4.10872 11.363 0.
-488.694 -1295.02 0.
-0.0987803 -0.273576 0.
-518.138 -1414.77 0.
-0.00193873 -7.69261 0.
-0.202344 -0.558409 0.
7.64056 21.0219 0.
-108.02 -299.153 0.
-5.98863 -16.5325 0.
-117.174 -324.034 0.
-6.63653 -18.146 0.
-8.03516 -22.0127 0.
2.49379 6.70479 0.
-0.635714 -45.3216 0.
8.28789 22.5969 0.
15.1909 41.1885 0.
-16.7668 -43.8175 0.
-2.34647 -6.12118 0.
-79.7699 -213.515 0.
1.96294 5.20395 0.
-9.29817 -23.7887 0.
-263.164 -696.816 0.
-15.5488 -37.8022 0.
-16.8223 -41.4953 0.
-193.818 -483.409 0.
-10.6408 -25.8953 0.
-538.469 -1338.23 0.
-0.844647 -2.05273 0.
-0.889032 -2.0314 0.
20.4369 48.7531 0.
-0.13493 -0.321726 0.
-43.2542 -106.465 0.
-613.343 -1571.63 0.
-15.4578 -38.4269 0.
-1.21534 -3.3208 0.
22.5913 60.9905 0.
18.4645 51.1299 0.
14.614 38.7445 0.
-548.453 -1477.83 0.
3.24357 7.54277 0.
-144.526 -346.694 0.
-326.268 -772.68 0.
-7.11702 -15.5011 0.
10.7587 24.3924 0.
-235.353 -562.854 0.
9.31687 21.8271 0.
4.85883 11.8992 0.
1.52061 3.7635 0.
23.0365 57.923 0.
-172.101 -439.411 0.
-29.3373 -73.7626 0.
16.8528 41.6235 0.
-1.65759 -53.7834 0.
-23.2664 -60.3879 0.
20.4956 54.0621 0.
-0.815995 -2.17776 0.
-15.2009 -41.0167 0.
-2.95085 -7.95074 0.
-113.138 -306.498 0.
-17.2971 -47.5312 0.
13.9141 38.2343 0.
-7.70245 -21.198 0.
1.38225 3.80051 0.
-2.67238 -7.34544 0.
4.65374 12.7719 0.
9.55494 26.4111 0.
-23.6658 -65.5257 0.
-391.221 -1073.97 0.
10.9704 30.3516 0.
-0.941244 -2.5068 0.
6.34327 17.5028 0.
-0.0197241 -11.6298 0.
4.47596 11.9471 0.
2.15598 4.30953 0.
2.02487 4.50854 0.
2.11472 5.30875 0.
-372.821 -883.351 0.
0.650292 1.70983 0.
-514.488 -1146.1 0.
-28.4203 -44.957 0.
-1.73345 -3.10257 0.
-537.07 -1403.81 0.
-17.3515 -19.664 0.
-6.66951 -6.04354 0.
-264.18 -675.454 0.
-352.729 -930.339 0.
-37.9052 -55.874 0.
-41.2669 -71.7171 0.
-493.793 -1253.43 0.
-56.7934 -60.0981 0.
-23.9301 -14.2479 0.
-401.544 -849.819 0.
-0.261714 -0.26478 0.
-661.161 -1772.79 0.
-0.487333 -2.90989 0.
-58.3121 -152.644 0.
-0.0205833 -0.867735 0.
-0.0428202 -1.90422 0.
0.000368042 1.55854 0.
-0.185205 -6.05138 0.
-0.00146306 -1.84874 0.
1.1434 3.11588 0.
4.2673 11.8154 0.
-0.0770983 -24.5699 0.
6.33475 17.4125 0.
-465.269 -1267.74 0.
13.1391 35.9504 0.
-1.75287 -4.84722 0.
8.07922 22.295 0.
-95.4816 -263.967 0.
-38.1073 -104.063 0.
1.78995 4.87754 0.
10.5791 28.4633 0.
-11.821 -31.7 0.
-14.161 -37.5264 0.
-230.666 -623.921 0.
-137.964 -360.273 0.
-4.76614 -12.4238 0.
-23.6438 -63.1576 0.
-176.92 -468.043 0.
0.0736839 0.18852 0.
-2.95108 -7.78513 0.
-425.925 -1039.69 0.
-3.73576 -55.4163 0.
-569.784 -1419.22 0.
-3.65774 -60.9838 0.
-2.06393 -4.85712 0.
-192.16 -465.525 0.
-22.4919 -52.0994 0.
-8.23398 -67.7358 0.
-149.27 -358.516 0.
18.0052 41.6476 0.
-0.574878 -1.39673 0.
-1.73201 -4.3343 0.
-104.316 -285.863 0.
-9.74796 -26.4185 0.
-0.0944819 -0.261653 0.
-29.5749 -78.8537 0.
-9.7915 -25.4738 0.
-49.8708 -116.569 0.
-211.654 -484.332 0.
-201.006 -475.932 0.
-11.8676 -25.8896 0.
-403.956 -918.013 0.
22.5141 50.5536 0.
-29.6913 -69.8366 0.
20.6527 50.3979 0.
-10.9009 -25.9519 0.
10.4309 26.257 0.
-116.441 -297.588 0.
14.0358 33.8437 0.
-37.8824 -93.5212 0.
-132.616 -334.838 0.
-12.5198 -31.4485 0.
-5.63092 -14.2105 0.
-185.406 -492.574 0.
-2.80092 -7.25615 0.
12.9097 34.7695 0.
-4.9478 -13.3972 0.
-146.214 -400.384 0.
-1.63376 -4.42611 0.
-9.51203 -26.1495 0.
-4.58802 -12.5997 0.
13.038 35.6744 0.
1.95076 5.32535 0.
-120.696 -334.044 0.
-5.41019 -14.9757 0.
-48.097 -132.809 0.
1.30974 3.62754 0.
3.11668 8.39104 0.
-0.00803803 -11.3133 0.
-396.828 -1051.85 0.
-2.64036 -7.24316 0.
-0.00563228 -15.3862 0.
-729.01 -1830.54 0.
2.55215 6.97058 0.
-0.0215843 -0.538087 0.
-0.00283939 -0.683455 0.
-33.8804 -61.2191 0.
-4.01785 -7.24382 0.
0.0743912 0.141758 0.
-29.0014 -43.3607 0.
-14.9855 -17.3911 0.
-8.13819 -7.61393 0.
-30.8022 -26.212 0.
-16.7729 -11.2996 0.
-25.3908 -28.6891 0.
-8.66701 -6.4585 0.
-3.25753 -1.41317 0.
-44.4201 -40.7545 0.
-0.794067 -0.411621 0.
0.00516849 0.000413192 0.
0.31601 0.383569 0.
0.0800007 0.534639 0.
0.335751 2.87206 0.
-0.000185468 -0.641691 0.
-381.963 -988.495 0.
-0.211714 -10.8914 0.
-487.798 -1152 0.
4.39551 12.1368 0.
-283.045 -768.958 0.
5.61081 15.1798 0.
6.31561 17.4608 0.
9.25027 25.5347 0.
-3.35116 -9.24505 0.
-132.015 -361.645 0.
11.292 31.1296 0.
-90.4272 -249.323 0.
12.5952 34.7424 0.
-199.118 -550.326 0.
-23.1224 -63.1868 0.
-65.748 -179.376 0.
-25.4968 -68.6483 0.
-182.835 -490.697 0.
18.5843 49.1808 0.
-69.0876 -183.924 0.
-312.313 -814.963 0.
-9.01205 -23.4732 0.
13.54 35.6543 0.
-165.547 -436.963 0.
-264.589 -677.061 0.
14.798 37.8556 0.
-110.058 -269.624 0.
9.33066 22.4001 0.
11.6121 27.8888 0.
-112.953 -273.14 0.
-33.4108 -79.404 0.
17.1589 38.5807 0.
-256.461 -602.839 0.
3.34234 7.33195 0.
1.60457 3.87617 0.
-16.083 -37.4901 0.
0.150556 0.369223 0.
-4.98652 -66.6309 0.
-120.425 -330.888 0.
-203.435 -553.353 0.
1.22646 3.01391 0.
-1.90135 -52.7333 0.
-55.9425 -127.345 0.
-427.001 -1002.93 0.
-39.0419 -88.9237 0.
26.4854 56.63 0.
2.60005 5.68183 0.
14.4822 30.9033 0.
-12.4727 -28.1168 0.
-189.101 -446.58 0.
-5.06595 -11.596 0.
-6.12689 -14.611 0.
20.7736 52.3548 0.
-8.71747 -21.3026 0.
8.77099 21.8595 0.
-6.65434 -16.4203 0.
-14.2136 -34.6569 0.
-4.64869 -11.6448 0.
-204.464 -514.507 0.
-2.50247 -6.49723 0.
8.72633 22.6078 0.
-187.812 -505.838 0.
-9.73938 -26.3634 0.
-40.6291 -110.616 0.
15.2537 41.4137 0.
-204.261 -560.865 0.
-0.951764 -2.61041 0.
-157.848 -431.922 0.
-36.2943 -99.3372 0.
-64.5438 -178.567 0.
10.7073 29.6287 0.
2.44302 6.76386 0.
9.04471 25.0046 0.
-320.652 -872.209 0.
-0.129901 -20.5985 0.
12.5266 34.292 0.
0.413245 1.13629 0.
-0.00785798 -17.2452 0.
0.599457 1.61411 0.
0.00734026 3.63196 0.
-0.0405127 -2.26437 0.
-0.00061673 -3.24662 0.
-0.0170894 -1.07869 0.
-0.0804058 -0.151986 0.
0.231644 0.463098 0.
-33.6702 -65.3659 0.
-26.5584 -43.6327 0.
-21.751 -30.3888 0.
-41.6158 -34.5821 0.
-28.834 -19.2088 0.
-28.8515 -43.565 0.
-11.8237 -9.30318 0.
-11.6967 -8.14235 0.
-36.739 -25.0084 0.
-3.49212 -1.77184 0.
-0.0863261 -0.00331807 0.
0.16137 0.244868 0.
0.301042 0.42047 0.
-0.603702 -5.74793 0.
-0.0336859 -3.63584 0.
-0.0167891 -2.80092 0.
-0.0995458 -12.5222 0.
-0.376694 -8.40654 0.
3.08611 8.52047 0.
-22.3372 -61.7299 0.
11.1408 30.8574 0.
-235.342 -651.812 0.
-0.000270226 -17.3464 0.
-0.0244337 -34.8281 0.
6.49907 17.8409 0.
-4.10121 -11.275 0.
-151.204 -416.239 0.
-2.86522 -7.87122 0.
-36.0204 -99.5143 0.
-15.981 -43.7025 0.
-76.2421 -208.163 0.
-8.55375 -23.0973 0.
-123.282 -331.112 0.
-153.022 -404.223 0.
-37.6616 -100.123 0.
3.49432 9.00925 0.
-26.0122 -67.6987 0.
-24.2859 -63.7602 0.
5.28884 13.8859 0.
-90.3402 -231.171 0.
-27.0951 -69.3116 0.
-6.32298 -15.1428 0.
11.8478 28.5689 0.
-62.6461 -151.587 0.
4.39281 10.17 0.
-4.26137 -56.1146 0.
14.6406 33.2745 0.
14.7034 31.5268 0.
-441.649 -984.295 0.
1.20443 2.49667 0.
12.353 26.0672 0.
17.7499 40.1249 0.
15.6726 37.2997 0.
9.80781 26.4913 0.
-1.07824 -51.5499 0.
-6.73842 -16.8411 0.
-118.717 -307.612 0.
-375.888 -860.779 0.
19.6455 43.2324 0.
6.3982 13.3544 0.
-234.324 -496.937 0.
-2.42632 -5.04555 0.
0.326699 0.699395 0.
-9.53628 -21.5951 0.
9.84312 22.0376 0.
7.36117 16.8743 0.
-30.4089 -72.6515 0.
9.13296 21.8774 0.
15.9094 38.8894 0.
-163.464 -407.71 0.
16.1566 38.6724 0.
0.125099 0.306275 0.
2.63318 6.57713 0.
17.1609 42.6482 0.
9.32115 24.2013 0.
-105.056 -272.145 0.
-6.4406 -17.3343 0.
9.39302 25.3606 0.
-12.0117 -32.7635 0.
-9.38345 -25.5285 0.
-95.9895 -263.242 0.
-1.09005 -2.99335 0.
-22.3504 -61.2204 0.
7.92121 21.7029 0.
-164.541 -455.018 0.
6.24188 17.2652 0.
-285.275 -782.505 0.
-1.42602 -3.9075 0.
4.51862 12.3746 0.
-0.0567053 -25.0772 0.
9.39088 25.9428 0.
3.51771 9.68758 0.
-0.00706154 -14.1044 0.
0.79882 2.20713 0.
-0.0156649 -4.96463 0.
-418.471 -892.455 0.
-0.117237 -0.28911 0.
0.000300205 2.99434 0.
-510.254 -1213.25 0.
0.376331 0.824859 0.
-223.469 -520.3 0.
-23.3062 -31.4917 0.
-78.8567 -174.241 0.
-127.892 -291.102 0.
-323.965 -833.901 0.
-22.6961 -23.4226 0.
-19.5278 -15.7054 0.
-360.785 -940.53 0.
-17.0722 -10.5272 0.
-31.12 -21.2306 0.
-362.204 -649.389 0.
0.00446073 0.274562 0.
-473.508 -1210.87 0.
-0.163556 -8.47273 0.
-0.00477387 -3.00453 0.
-249.679 -648.559 0.
0.0172814 5.28562 0.
-0.198498 -6.99482 0.
3.36714 9.13103 0.
-15.4318 -42.701 0.
-0.0010214 -32.4623 0.
-100.837 -279.293 0.
2.51137 6.95426 0.
-155.255 -430.025 0.
-2.63957 -7.21828 0.
-3.43355 -9.40813 0.
-4.47128 -12.2837 0.
12.9885 35.6541 0.
-42.6727 -115.514 0.
-20.1779 -55.2185 0.
-86.9039 -237.451 0.
12.9774 34.9596 0.
-51.7932 -139.63 0.
2.77181 7.3131 0.
-50.7994 -134.843 0.
-9.69118 -24.9746 0.
6.28307 16.0583 0.
-138.116 -361.461 0.
-8.01726 -20.9849 0.
17.2534 44.1094 0.
-105.88 -270.863 0.
-45.2499 -108.805 0.
23.1794 53.881 0.
-245.586 -599.117 0.
-1.57616 -3.68049 0.
8.53895 19.0316 0.
-462.749 -1064.28 0.
-6.57284 -54.8097 0.
-4.61164 -9.62949 0.
19.9784 42.1012 0.
15.171 31.3424 0.
-5.82826 -12.0377 0.
-269.158 -647.528 0.
0.469492 1.08371 0.
0.279279 0.746102 0.
-100.893 -256.781 0.
-369.897 -974.07 0.
23.5334 50.4928 0.
-8.31545 -18.2361 0.
-182.362 -377.584 0.
9.91439 19.9334 0.
7.73151 16.1365 0.
-59.9728 -128.787 0.
0.256956 0.569661 0.
19.4463 43.5471 0.
-6.64379 -15.2507 0.
-6.2016 -14.2047 0.
6.35293 15.2258 0.
-178.435 -436.587 0.
5.90508 14.3791 0.
-13.1825 -31.7014 0.
-151.849 -373.397 0.
4.96405 12.2071 0.
12.9199 32.0386 0.
-109.029 -283.028 0.
11.705 30.3265 0.
4.80658 12.9305 0.
0.601614 1.62056 0.
-110.392 -301.663 0.
-10.3086 -28.0987 0.
-0.936607 -2.56734 0.
2.96473 8.12023 0.
-32.6064 -89.4057 0.
-5.74042 -15.7438 0.
-35.8702 -98.4016 0.
3.28174 8.95085 0.
6.89873 18.7734 0.
-4.40083 -12.0156 0.
10.1935 27.8062 0.
5.55328 15.3703 0.
5.91919 16.3951 0.
-233.931 -645.081 0.
-0.00361979 -22.3071 0.
-222.857 -611.061 0.
-0.00135987 -13.0697 0.
0.0771107 0.183293 0.
3.2562 8.6729 0.
-0.0263258 -6.99775 0.
0.370884 0.911002 0.
0.660151 1.7752 0.
-36.6258 -63.6065 0.
-29.2253 -36.9814 0.
-38.1276 -50.3892 0.
-39.8349 -46.2668 0.
-13.1161 -11.8096 0.
-27.6834 -34.0242 0.
-23.6967 -23.0474 0.
-31.5133 -47.5566 0.
-0.757581 -0.455305 0.
-1.7533 -1.23705 0.
-6.9266 -5.71527 0.
0.0364726 1.67782 0.
-0.0174613 -2.37063 0.
0.135154 5.28771 0.
-0.000925912 -9.51306 0.
5.72668 15.8486 0.
1.66505 4.56856 0.
-248.755 -665.194 0.
0.90162 2.43717 0.
-21.5428 -59.1126 0.
1.72268 4.7708 0.
4.90981 13.5993 0.
10.1272 28.0324 0.
-47.673 -132.026 0.
-53.8232 -145.85 0.
-17.2079 -46.9694 0.
2.41398 6.62667 0.
14.8478 40.7255 0.
-4.30355 -11.6433 0.
-40.3644 -109.252 0.
-1.05262 -2.82618 0.
-36.7182 -98.6609 0.
-73.6123 -194.829 0.
-1.09812 -48.3496 0.
-16.6219 -44.0568 0.
11.8123 30.427 0.
-2.06943 -5.28655 0.
-11.3046 -28.8428 0.
-149.251 -389.396 0.
-103.653 -265.274 0.
10.5186 26.5022 0.
-27.125 -65.5071 0.
-1.99298 -4.65352 0.
-7.14336 -16.5821 0.
-203.585 -479.83 0.
8.94767 20.1309 0.
16.7499 37.4871 0.
17.3742 38.1643 0.
16.1825 33.5801 0.
-8.06037 -51.2812 0.
-97.5328 -196.694 0.
-9.279 -18.756 0.
0.902687 2.01736 0.
-18.0442 -42.1729 0.
-54.0972 -146.276 0.
-2.3001 -47.0152 0.
-1.05053 -2.19589 0.
-92.6239 -197.882 0.
-269.835 -545.35 0.
-9.01676 -48.0633 0.
4.42312 8.92322 0.
-14.8271 -31.0409 0.
17.5492 37.7747 0.
15.345 34.0277 0.
-107.167 -239.926 0.
11.8784 26.6378 0.
-11.4023 -26.2259 0.
-6.49721 -15.5763 0.
-4.27124 -10.1339 0.
5.97556 14.6671 0.
0.941806 2.27556 0.
17.126 41.6415 0.
-2.55199 -46.7509 0.
15.8964 39.3294 0.
-4.30751 -11.1837 0.
-0.382821 -0.983383 0.
-72.4651 -194.481 0.
-7.73255 -20.7781 0.
-8.14278 -22.2858 0.
-3.90738 -10.5759 0.
-1.89072 -5.14176 0.
3.05864 8.35296 0.
-0.0552444 -0.150717 0.
-0.919262 -2.47615 0.
8.89183 23.9708 0.
-9.75872 -26.5895 0.
-9.28142 -25.23 0.
-8.74317 -23.7745 0.
2.56553 6.96742 0.
-64.7589 -179.352 0.
-4.97361 -13.7635 0.
-9.7262 -26.9029 0.
5.05584 14.0021 0.
7.61802 21.0835 0.
-0.0326143 -8.8971 0.
1.77855 4.51877 0.
0.0113162 2.31624 0.
0.0344202 4.52604 0.
-0.0123835 -0.908104 0.
-125.41 -304.343 0.
-117.649 -208.766 0.
-28.2281 -16.3846 0.
-62.4827 -96.0652 0.
-42.4087 -63.9781 0.
-162.415 -399.553 0.
-37.9919 -53.0661 0.
-29.1819 -29.2124 0.
-156.247 -365.611 0.
-3.41484 -1.61884 0.
-141.155 -330.589 0.
-5.81933 -4.24117 0.
0.0546274 2.26695 0.
0.000195453 0.412685 0.
0.0607177 2.0421 0.
6.02855 16.6239 0.
9.26212 25.4068 0.
-0.00826265 -23.1705 0.
6.62106 18.0525 0.
-2.09182 -5.63536 0.
-154.92 -423.675 0.
-0.292385 -0.809673 0.
6.64503 18.4055 0.
11.8026 32.6514 0.
-26.9087 -74.498 0.
-35.3488 -95.8463 0.
2.43233 6.60329 0.
-8.26905 -22.5892 0.
-201.506 -552.261 0.
-29.0717 -78.6129 0.
-23.4843 -63.5299 0.
3.93753 10.4026 0.
-58.6731 -157.232 0.
-165.96 -438.97 0.
14.2998 37.5396 0.
9.81235 25.0046 0.
-21.242 -54.6909 0.
-0.619261 -1.58118 0.
1.87301 4.77308 0.
-1.79782 -4.54428 0.
-167.394 -428.772 0.
-8.26513 -20.8454 0.
3.69604 8.67476 0.
16.5829 38.8913 0.
12.818 29.9203 0.
18.2323 41.5649 0.
18.9538 43.0469 0.
19.3189 43.1459 0.
15.0778 33.0341 0.
-314.956 -648.14 0.
-1.81121 -3.66724 0.
3.26428 6.225 0.
-50.3178 -99.2148 0.
-89.0627 -202.191 0.
-1.94669 -4.24672 0.
12.9248 34.0917 0.
4.38022 11.0246 0.
-41.3257 -85.9684 0.
-267.689 -568.527 0.
20.5644 38.7293 0.
11.748 22.911 0.
-7.36158 -46.9745 0.
12.406 25.6709 0.
3.31159 7.28569 0.
18.2233 40.4022 0.
-6.34397 -13.8198 0.
-3.87153 -39.0755 0.
15.3643 35.4628 0.
-4.53321 -10.2291 0.
-0.396646 -0.949063 0.
-65.4214 -161.843 0.
0.606533 1.44533 0.
10.966 26.9133 0.
11.3714 27.83 0.
1.77563 4.38247 0.
-7.93645 -20.058 0.
-1.37909 -41.7242 0.
-209.775 -546.807 0.
-25.639 -68.7146 0.
9.28417 24.3869 0.
10.0903 27.2741 0.
-15.8918 -43.1658 0.
-64.1029 -174.498 0.
14.9617 39.7784 0.
6.7563 18.2115 0.
5.42109 14.6244 0.
-98.0289 -266.833 0.
5.45414 14.8092 0.
-32.3098 -87.8297 0.
11.4028 30.9776 0.
-63.1733 -174.902 0.
5.91652 16.3601 0.
2.79143 7.73107 0.
-0.0191927 -29.939 0.
-0.00810719 -18.9973 0.
8.78048 23.7555 0.
-0.12971 -24.4564 0.
-213.678 -573.121 0.
2.08814 5.76596 0.
-101.218 -253.996 0.
-0.000321997 -4.0946 0.
-13.4083 -11.9841 0.
-4.93955 -3.7778 0.
-30.691 -39.3585 0.
-32.9192 -51.9797 0.
-13.0013 -9.8214 0.
-25.6299 -18.9229 0.
-23.5955 -11.8639 0.
-26.9117 -21.9775 0.
-2.44583 -1.10768 0.
-0.531994 -0.209848 0.
-83.7171 -195.32 0.
1.61631 4.47059 0.
-163.399 -402.369 0.
-0.00322966 -8.17346 0.
-133.111 -365.187 0.
-0.0170334 -1.77917 0.
3.59766 9.95782 0.
1.68212 4.41883 0.
1.69721 4.55704 0.
8.03748 22.218 0.
7.12235 19.7095 0.
-130.651 -361.779 0.
0.909148 2.50742 0.
-20.354 -56.3249 0.
-35.4176 -96.0904 0.
-34.6915 -94.2376 0.
8.87096 24.1936 0.
-7.71581 -20.9861 0.
-15.0357 -40.6366 0.
-74.6304 -201.785 0.
-4.94135 -13.0353 0.
9.45832 24.9314 0.
-43.4581 -114.856 0.
-5.79107 -15.1903 0.
-12.0548 -30.7886 0.
-8.32963 -20.856 0.
-96.1191 -246.563 0.
5.97998 15.2194 0.
13.1201 33.1188 0.
6.49529 16.0071 0.
-27.4731 -69.3468 0.
7.41708 17.5231 0.
17.169 38.8363 0.
-183.728 -430.728 0.
13.9267 31.9252 0.
19.436 43.5003 0.
-220.885 -491.659 0.
8.59298 18.7714 0.
12.8344 26.4877 0.
-14.0426 -28.179 0.
-1.59479 -3.02334 0.
4.42384 8.08553 0.
-229.942 -442.77 0.
-14.8221 -32.8617 0.
-6.55474 -50.1721 0.
-141.745 -361.512 0.
0.214472 0.403095 0.
20.2597 39.861 0.
-9.01983 -43.0175 0.
-121.359 -236.341 0.
2.78358 5.52034 0.
6.18412 13.0786 0.
-167.522 -376.372 0.
19.9037 41.9054 0.
-4.27299 -9.40548 0.
15.6776 35.4102 0.
18.842 41.0054 0.
-3.33131 -35.266 0.
14.4768 34.9357 0.
10.4134 25.1508 0.
1.63189 3.93044 0.
-74.4872 -184.583 0.
8.23735 20.1088 0.
-3.66623 -46.1132 0.
-4.7931 -11.5729 0.
-49.2781 -126.518 0.
-12.4729 -32.5071 0.
16.9472 44.1177 0.
-9.35104 -24.557 0.
-15.8129 -42.6828 0.
-64.972 -176.262 0.
7.76617 20.5879 0.
1.26132 3.35617 0.
-7.73019 -20.8515 0.
-73.7862 -199.204 0.
-42.4904 -115.53 0.
9.99164 27.1591 0.
-35.186 -95.4968 0.
-8.0548 -21.8459 0.
-22.7627 -62.9866 0.
13.0043 35.9234 0.
3.67022 10.1632 0.
-57.4961 -158.021 0.
-7.57968 -20.7967 0.
-0.193156 -0.528564 0.
-2.94442 -7.96304 0.
1.17761 3.23851 0.
5.78142 15.9732 0.
1.26594 3.42445 0.
-0.0344643 -4.45198 0.
-9.61982 -8.78972 0.
-0.882397 -1.07765 0.
-29.4842 -37.1108 0.
-33.6988 -68.125 0.
-22.3183 -31.6671 0.
-23.1542 -9.1398 0.
-21.1891 -8.94089 0.
-28.638 -26.0136 0.
-5.85212 -2.33066 0.
-4.4544 -1.70081 0.
-6.69937 -2.57567 0.
-0.00928266 -2.46432 0.
-0.196674 -12.5253 0.
2.56265 7.08472 0.
4.92278 13.6216 0.
6.92626 19.0779 0.
-28.1137 -77.7923 0.
7.17008 18.9478 0.
12.2679 32.8295 0.
1.46025 4.02996 0.
-0.0283619 -33.0143 0.
-0.812054 -2.23901 0.
-0.0853517 -37.0187 0.
-3.90654 -10.7498 0.
7.86189 21.3408 0.
6.16626 16.7588 0.
8.03795 21.8834 0.
7.38699 20.0543 0.
5.19958 13.863 0.
-31.3937 -84.8362 0.
-163.314 -430.159 0.
-1.70808 -4.49555 0.
0.0235199 0.0610338 0.
12.8675 33.7246 0.
-153.415 -392.86 0.
8.96245 22.495 0.
4.42339 10.889 0.
-5.4594 -13.8762 0.
-8.75305 -22.3718 0.
10.9962 27.2699 0.
-0.514052 -1.23181 0.
-269.14 -640.487 0.
3.52636 8.02707 0.
5.38126 12.0098 0.
0.4693 1.0813 0.
-8.03408 -18.0792 0.
16.7567 36.0876 0.
-44.9167 -97.7045 0.
-228.216 -480.438 0.
-6.38722 -35.2993 0.
-7.79222 -15.2405 0.
-17.0318 -30.8501 0.
-10.08 -17.6453 0.
14.6048 30.4217 0.
12.8777 27.8762 0.
15.0154 26.8801 0.
23.134 43.3271 0.
-124.435 -243.44 0.
-12.1477 -41.1476 0.
-5.52269 -23.7768 0.
-1.98586 -4.02171 0.
0.877003 1.89397 0.
0.985888 2.07866 0.
5.94716 12.6455 0.
-5.03334 -11.192 0.
1.01524 2.1258 0.
8.16212 17.8673 0.
3.30136 7.54513 0.
2.75041 6.21779 0.
-1.69465 -29.1136 0.
16.6092 40.4567 0.
-1.7453 -4.36943 0.
13.4714 30.3965 0.
-7.03999 -16.466 0.
-62.8802 -152.173 0.
-3.1321 -45.2841 0.
11.6877 29.227 0.
5.66665 14.7493 0.
-104.582 -274.572 0.
-13.1097 -35.3375 0.
-2.96597 -7.7726 0.
4.70683 12.4886 0.
-66.5056 -177.116 0.
0.0516787 0.139497 0.
11.3281 30.1161 0.
-0.14901 -0.404301 0.
3.16187 8.58351 0.
-33.0804 -89.6343 0.
-3.34954 -9.06904 0.
-14.1025 -38.9938 0.
-8.03897 -21.7319 0.
-7.12321 -19.3854 0.
-16.7389 -45.9622 0.
-8.0372 -22.0284 0.
-14.0813 -38.179 0.
10.2936 27.4711 0.
-1.02704 -2.84464 0.
-0.147156 -20.8354 0.
-0.000599063 -0.730056 0.
-0.0358663 -1.80214 0.
-42.4711 -51.6079 0.
-6.70182 -18.3471 0.
-17.6349 -16.8864 0.
-37.4085 -65.2873 0.
-24.594 -34.9964 0.
-20.8214 -10.4918 0.
-20.5132 -7.48059 0.
-62.1475 -98.0361 0.
-15.2783 -7.73199 0.
-18.3452 -10.3778 0.
-48.4052 -86.442 0.
-0.0362177 -1.85683 0.
-0.0107493 -3.12091 0.
-0.0887694 -18.405 0.
-1.21714 -3.36883 0.
-0.656786 -1.79574 0.
-20.9367 -57.7199 0.
-1.50573 -3.9826 0.
7.71623 20.3114 0.
4.14866 11.1431 0.
12.7138 35.0873 0.
0.104828 0.288651 0.
6.4396 17.7131 0.
9.15455 24.4814 0.
1.37062 3.63093 0.
12.3116 32.3801 0.
-38.0815 -103.481 0.
-63.4717 -171.966 0.
-10.1708 -27.0918 0.
0.510549 1.35497 0.
-33.8737 -89.0915 0.
-24.6015 -64.6496 0.
-0.981006 -2.54978 0.
10.1911 26.0063 0.
0.370977 0.897223 0.
9.79657 24.6597 0.
11.4301 28.1888 0.
11.4538 27.0379 0.
-187.957 -483.516 0.
-5.65264 -14.1157 0.
3.42193 8.25707 0.
7.13853 15.5029 0.
-5.59622 -12.8246 0.
14.1715 31.9702 0.
2.16081 4.54266 0.
-9.40424 -21.2707 0.
-6.79459 -14.7563 0.
4.20142 8.59739 0.
-48.3794 -103.729 0.
0.862251 1.72493 0.
-9.38549 -43.1898 0.
20.5763 32.6199 0.
-77.29 -133.606 0.
16.9268 35.1974 0.
1.04191 2.07058 0.
3.71307 6.58814 0.
-42.205 -78.2502 0.
-1.20596 -4.05155 0.
4.99016 8.50323 0.
4.01516 7.43744 0.
-5.99488 -25.5498 0.
-2.50519 -14.2128 0.
3.01381 6.48458 0.
-4.66599 -37.1105 0.
-3.3134 -18.0686 0.
18.2209 38.3482 0.
11.3171 24.938 0.
-6.6057 -35.6136 0.
-1.67002 -17.9369 0.
0.872265 2.14728 0.
2.14394 5.28644 0.
-3.55103 -34.1218 0.
-56.87 -134.707 0.
-8.38548 -19.6628 0.
1.89134 3.9354 0.
14.645 35.0393 0.
-12.6307 -31.7558 0.
4.33484 11.2838 0.
12.3909 29.1251 0.
12.167 31.1697 0.
13.7289 35.8135 0.
0.102177 0.271374 0.
-45.1146 -120.262 0.
-3.31795 -8.59624 0.
-52.886 -140.279 0.
-36.4159 -98.6784 0.
6.65726 18.0484 0.
-0.329776 -37.5961 0.
-2.07618 -20.8591 0.
-8.59 -22.2393 0.
9.80968 26.4232 0.
5.27701 14.3166 0.
5.52922 15.1672 0.
-8.06548 -22.0809 0.
-30.8827 -82.8097 0.
5.47771 12.2455 0.
5.0692 13.5258 0.
-0.878872 -2.30834 0.
-1.56269 -4.26199 0.
-0.0160707 -0.335376 0.
-10.8746 -30.0511 0.
-6.80719 -18.0232 0.
-27.6502 -23.6199 0.
-25.8249 -24.7595 0.
-30.4456 -36.7129 0.
-18.4129 -9.69058 0.
-9.51976 -3.48125 0.
-5.77055 -2.64146 0.
-13.5052 -6.79073 0.
-21.8411 -16.4847 0.
2.51908 16.2923 0.
7.75529 19.353 0.
-2.4838 -6.73457 0.
6.54412 16.5484 0.
4.96492 12.3203 0.
-3.75026 -10.1541 0.
-11.4678 -31.425 0.
-11.5912 -30.6883 0.
-0.145761 -0.384054 0.
11.4407 30.6087 0.
-1.8683 -4.92177 0.
8.07228 20.1397 0.
-68.5028 -188.136 0.
4.25507 11.3797 0.
0.286727 0.759483 0.
2.61126 6.87239 0.
9.58217 24.1877 0.
-5.78647 -15.4566 0.
-8.50283 -22.6298 0.
4.74129 12.5719 0.
-1.86382 -4.6117 0.
-6.84572 -16.4466 0.
-35.117 -91.4744 0.
14.3855 36.7856 0.
-6.78732 -16.4322 0.
5.45009 12.2872 0.
-59.6918 -147.651 0.
11.6665 27.5846 0.
-2.99254 -35.5605 0.
-6.01499 -15.1432 0.
-6.32001 -15.375 0.
-4.00356 -8.61589 0.
13.0807 26.4184 0.
5.27307 12.0473 0.
19.3145 40.9789 0.
4.28156 8.42219 0.
-67.426 -147.628 0.
5.55787 11.4408 0.
-4.26444 -22.8835 0.
-9.62989 -37.7804 0.
15.2757 28.9023 0.
0.215384 0.343682 0.
-13.2842 -30.0428 0.
3.0717 6.34435 0.
-0.588404 -1.16129 0.
