# vtk DataFile Version 2.0
test grain
ASCII
DATASET UNSTRUCTURED_GRID
POINTS 5000 float
0.497722 0.000613383 0.
0.500566 0.000797635 0.
0.503048 0.000864395 0.
0.505513 0.000929612 0.
0.507631 0.00094675 0.
0.509749 0.000964273 0.
0.51184 0.000977143 0.
0.513885 0.000981476 0.
0.515931 0.000985828 0.
0.517955 0.000989707 0.
0.519968 0.000993366 0.
0.521981 0.000997039 0.
0.523984 0.000997963 0.
0.525986 0.000998517 0.
0.527988 0.000999038 0.
0.52999 0.000999286 0.
0.531992 0.000999534 0.
0.533993 0.000999743 0.
0.535994 0.000999872 0.
0.537995 0.001 0.
0.539996 0.00100012 0.
0.541997 0.00100024 0.
0.543997 0.00100035 0.
0.545997 0.00100028 0.
0.547998 0.00100016 0.
0.549998 0.00100004 0.
0.551998 0.00100013 0.
0.553998 0.00100022 0.
0.555998 0.0010003 0.
0.557998 0.00100034 0.
0.559999 0.00100039 0.
0.561999 0.00100042 0.
0.563999 0.00100044 0.
0.565999 0.00100046 0.
0.567999 0.00100045 0.
0.569999 0.00100044 0.
0.571999 0.00100043 0.
0.573999 0.00100041 0.
0.575999 0.0010004 0.
0.577999 0.00100038 0.
0.579999 0.00100041 0.
0.581999 0.00100044 0.
0.583999 0.00100044 0.
0.585999 0.0010004 0.
0.587999 0.00100036 0.
0.589999 0.00100045 0.
0.591999 0.00100065 0.
0.593999 0.00100085 0.
0.595999 0.00100064 0.
0.598 0.00100032 0.
0.6 0.001 0.
0.602001 0.00100033 0.
0.604001 0.00100066 0.
0.606001 0.00100088 0.
0.608001 0.00100067 0.
0.610001 0.00100047 0.
0.612001 0.00100037 0.
0.614001 0.00100041 0.
0.616001 0.00100045 0.
0.618001 0.00100043 0.
0.620001 0.00100039 0.
0.622001 0.00100035 0.
0.624001 0.00100037 0.
0.626001 0.00100039 0.
0.628001 0.00100041 0.
0.630001 0.00100043 0.
0.632001 0.00100045 0.
0.634001 0.00100046 0.
0.636001 0.00100045 0.
0.638001 0.00100044 0.
0.640002 0.00100039 0.
0.642002 0.0010003 0.
0.644002 0.00100021 0.
0.646002 0.00100015 0.
0.648002 0.0010001 0.
0.650002 0.00100005 0.
0.652003 0.00100013 0.
0.654003 0.00100021 0.
0.656004 0.00100025 0.
0.658004 0.00100013 0.
0.660005 0.001 0.
0.662006 0.000999844 0.
0.664007 0.000999639 0.
0.666008 0.000999434 0.
0.66801 0.000999295 0.
0.670012 0.000999188 0.
0.672014 0.00099908 0.
0.674017 0.000997671 0.
0.67602 0.000996111 0.
0.678026 0.000994187 0.
0.680048 0.00098957 0.
0.68207 0.000984974 0.
0.684106 0.000979951 0.
0.686169 0.000974092 0.
0.688231 0.000968267 0.
0.690399 0.0009404 0.
0.692622 0.000902545 0.
0.694869 0.000863456 0.
0.697662 0.000765721 0.
0.700461 0.000669957 0.
0.495595 0.00157768 0.
0.498977 0.00228818 0.
0.501872 0.00255681 0.
0.50471 0.00277096 0.
0.50709 0.00283088 0.
0.50939 0.00288625 0.
0.511628 0.00293096 0.
0.513723 0.00294405 0.
0.515819 0.0029572 0.
0.517878 0.00296885 0.
0.519914 0.0029799 0.
0.52195 0.00299098 0.
0.523959 0.00299388 0.
0.525965 0.00299554 0.
0.52797 0.00299711 0.
0.529975 0.00299785 0.
0.531979 0.0029986 0.
0.533983 0.00299923 0.
0.535986 0.00299961 0.
0.537988 0.003 0.
0.53999 0.00300036 0.
0.541991 0.00300071 0.
0.543992 0.00300105 0.
0.545993 0.00300084 0.
0.547994 0.00300048 0.
0.549994 0.00300011 0.
0.551994 0.00300038 0.
0.553994 0.00300065 0.
0.555995 0.0030009 0.
0.557995 0.00300103 0.
0.559996 0.00300116 0.
0.561996 0.00300126 0.
0.563997 0.00300131 0.
0.565997 0.00300137 0.
0.567997 0.00300136 0.
0.569998 0.00300133 0.
0.571998 0.00300129 0.
0.573998 0.00300124 0.
0.575997 0.00300119 0.
0.577997 0.00300115 0.
0.579997 0.00300123 0.
0.581997 0.00300131 0.
0.583997 0.00300132 0.
0.585997 0.0030012 0.
0.587997 0.00300109 0.
0.589997 0.00300136 0.
0.591997 0.00300195 0.
0.593997 0.00300254 0.
0.595998 0.00300192 0.
0.597999 0.00300096 0.
0.6 0.003 0.
0.602002 0.003001 0.
0.604003 0.00300199 0.
0.606004 0.00300263 0.
0.608004 0.00300202 0.
0.610003 0.0030014 0.
0.612003 0.00300111 0.
0.614003 0.00300122 0.
0.616003 0.00300134 0.
0.618003 0.0030013 0.
0.620003 0.00300117 0.
0.622003 0.00300105 0.
0.624003 0.0030011 0.
0.626003 0.00300117 0.
0.628002 0.00300124 0.
0.630003 0.0030013 0.
0.632003 0.00300136 0.
0.634003 0.00300138 0.
0.636004 0.00300135 0.
0.638004 0.00300132 0.
0.640005 0.00300116 0.
0.642005 0.00300089 0.
0.644006 0.00300063 0.
0.646006 0.00300045 0.
0.648006 0.0030003 0.
0.650007 0.00300015 0.
0.652007 0.00300039 0.
0.654008 0.00300064 0.
0.656009 0.00300074 0.
0.658011 0.00300038 0.
0.660012 0.00300001 0.
0.662014 0.00299953 0.
0.664018 0.00299892 0.
0.666021 0.0029983 0.
0.668026 0.00299788 0.
0.670031 0.00299756 0.
0.672036 0.00299724 0.
0.674045 0.00299296 0.
0.676055 0.00298827 0.
0.678071 0.00298236 0.
0.680129 0.0029684 0.
0.682187 0.00295451 0.
0.684274 0.00293928 0.
0.686405 0.0029215 0.
0.688535 0.00290383 0.
0.690952 0.00280222 0.
0.693444 0.00268208 0.
0.696173 0.00252136 0.
0.699363 0.0022156 0.
0.702675 0.00170555 0.
0.493088 0.00217956 0.
0.49679 0.00336591 0.
0.500489 0.00419792 0.
0.503712 0.00456921 0.
0.506497 0.00470138 0.
0.508993 0.00479862 0.
0.511411 0.00488413 0.
0.513557 0.00490611 0.
0.515705 0.00492819 0.
0.517799 0.00494764 0.
0.519858 0.00496615 0.
0.521918 0.00498473 0.
0.523934 0.00498977 0.
0.525943 0.00499254 0.
0.527953 0.00499517 0.
0.52996 0.00499641 0.
0.531967 0.00499766 0.
0.533973 0.00499871 0.
0.535977 0.00499935 0.
0.537981 0.005 0.
0.539984 0.0050006 0.
0.541986 0.00500118 0.
0.543987 0.00500175 0.
0.545988 0.00500141 0.
0.547989 0.00500079 0.
0.549991 0.00500018 0.
0.551991 0.00500063 0.
0.553991 0.00500109 0.
0.555991 0.00500149 0.
0.557992 0.00500172 0.
0.559993 0.00500194 0.
0.561994 0.0050021 0.
0.563995 0.00500219 0.
0.565995 0.00500227 0.
0.567996 0.00500227 0.
0.569996 0.00500221 0.
0.571996 0.00500215 0.
0.573996 0.00500207 0.
0.575995 0.00500198 0.
0.577995 0.00500192 0.
0.579995 0.00500205 0.
0.581995 0.00500218 0.
0.583995 0.0050022 0.
0.585995 0.00500201 0.
0.587995 0.00500181 0.
0.589995 0.00500227 0.
0.591994 0.00500325 0.
0.593994 0.00500423 0.
0.595996 0.0050032 0.
0.597998 0.0050016 0.
0.6 0.005 0.
0.602003 0.00500166 0.
0.604005 0.00500333 0.
0.606006 0.00500439 0.
0.608006 0.00500336 0.
0.610006 0.00500233 0.
0.612006 0.00500185 0.
0.614005 0.00500204 0.
0.616005 0.00500223 0.
0.618005 0.00500216 0.
0.620005 0.00500196 0.
0.622005 0.00500176 0.
0.624005 0.00500184 0.
0.626004 0.00500196 0.
0.628004 0.00500207 0.
0.630005 0.00500216 0.
0.632005 0.00500226 0.
0.634005 0.0050023 0.
0.636006 0.00500225 0.
0.638007 0.0050022 0.
0.640008 0.00500193 0.
0.642009 0.00500149 0.
0.64401 0.00500105 0.
0.64601 0.00500075 0.
0.64801 0.0050005 0.
0.650011 0.00500024 0.
0.652012 0.00500065 0.
0.654013 0.00500106 0.
0.656014 0.00500124 0.
0.658017 0.00500062 0.
0.660019 0.00500001 0.
0.662023 0.00499921 0.
0.664029 0.00499819 0.
0.666034 0.00499716 0.
0.668042 0.00499647 0.
0.67005 0.00499593 0.
0.672058 0.0049954 0.
0.674074 0.00498817 0.
0.67609 0.00498034 0.
0.678118 0.00497025 0.
0.680213 0.00494682 0.
0.682307 0.00492349 0.
0.684447 0.00489782 0.
0.68665 0.00486786 0.
0.688851 0.00483808 0.
0.691592 0.00463592 0.
0.694381 0.00442418 0.
0.697792 0.0040683 0.
0.701509 0.00347346 0.
0.705307 0.0023223 0.
0.4901 0.00231872 0.
0.494485 0.00401606 0.
0.498651 0.00528965 0.
0.502072 0.0058199 0.
0.505254 0.00614668 0.
0.507922 0.00634712 0.
0.510574 0.0065544 0.
0.512897 0.00665045 0.
0.515212 0.00673808 0.
0.517448 0.00680833 0.
0.519588 0.00685481 0.
0.521731 0.00690201 0.
0.5238 0.00693023 0.
0.525853 0.00695465 0.
0.527904 0.00697778 0.
0.52992 0.00698032 0.
0.531936 0.00698286 0.
0.53395 0.00698613 0.
0.535959 0.00699101 0.
0.537969 0.00699591 0.
0.539975 0.00699888 0.
0.541978 0.00700024 0.
0.543981 0.00700159 0.
0.545983 0.00700184 0.
0.547984 0.00700176 0.
0.549986 0.00700168 0.
0.551986 0.00700192 0.
0.553987 0.00700216 0.
0.555987 0.0070024 0.
0.557988 0.00700262 0.
0.55999 0.00700285 0.
0.561991 0.00700308 0.
0.563992 0.00700331 0.
0.565992 0.00700354 0.
0.567993 0.00700367 0.
0.569994 0.00700376 0.
0.571994 0.00700384 0.
0.573994 0.00700377 0.
0.575994 0.00700367 0.
0.577993 0.0070036 0.
0.579993 0.00700372 0.
0.581994 0.00700384 0.
0.583994 0.00700392 0.
0.585993 0.0070039 0.
0.587993 0.00700388 0.
0.589993 0.00700425 0.
0.591992 0.00700491 0.
0.593992 0.00700558 0.
0.595994 0.00700485 0.
0.597997 0.00700371 0.
0.6 0.00700258 0.
0.602003 0.00700384 0.
0.604006 0.0070051 0.
0.606009 0.00700591 0.
0.608008 0.00700512 0.
0.610008 0.00700434 0.
0.612008 0.00700392 0.
0.614007 0.00700397 0.
0.616007 0.00700401 0.
0.618007 0.0070039 0.
0.620007 0.00700372 0.
0.622008 0.00700354 0.
0.624007 0.00700359 0.
0.626007 0.00700367 0.
0.628007 0.00700374 0.
0.630007 0.00700368 0.
0.632008 0.00700363 0.
0.634009 0.00700353 0.
0.63601 0.00700334 0.
0.638011 0.00700316 0.
0.640012 0.00700282 0.
0.642013 0.00700235 0.
0.644014 0.00700189 0.
0.646015 0.00700172 0.
0.648016 0.00700164 0.
0.650016 0.00700156 0.
0.652018 0.00700138 0.
0.65402 0.0070012 0.
0.656022 0.00700065 0.
0.658027 0.00699885 0.
0.660031 0.00699705 0.
0.66204 0.00699305 0.
0.664053 0.00698646 0.
0.666065 0.00697989 0.
0.668085 0.00697586 0.
0.670109 0.00697293 0.
0.672132 0.00697001 0.
0.674205 0.0069348 0.
0.676281 0.00689806 0.
0.678381 0.00685784 0.
0.680574 0.00679994 0.
0.682762 0.00674324 0.
0.685092 0.0066486 0.
0.687501 0.00653559 0.
0.690012 0.00637034 0.
0.692951 0.00600115 0.
0.69603 0.0056348 0.
0.699705 0.00515025 0.
0.704089 0.00413765 0.
0.708213 0.00252467 0.
0.487049 0.00230835 0.
0.491879 0.00426232 0.
0.496164 0.00576634 0.
0.500162 0.00685404 0.
0.50362 0.00744031 0.
0.506687 0.00781415 0.
0.509565 0.00815729 0.
0.512151 0.00836207 0.
0.514654 0.00852387 0.
0.517077 0.00866283 0.
0.519304 0.008739 0.
0.521534 0.00881639 0.
0.523662 0.00886875 0.
0.525759 0.00891539 0.
0.527854 0.00896038 0.
0.529879 0.00896422 0.
0.531904 0.00896806 0.
0.533926 0.00897348 0.
0.535941 0.00898262 0.
0.537957 0.00899177 0.
0.539966 0.00899715 0.
0.54197 0.00899929 0.
0.543975 0.00900143 0.
0.545977 0.00900227 0.
0.547979 0.00900272 0.
0.549981 0.00900317 0.
0.551982 0.0090032 0.
0.553982 0.00900323 0.
0.555983 0.0090033 0.
0.557985 0.00900353 0.
0.559986 0.00900376 0.
0.561987 0.00900406 0.
0.563988 0.00900443 0.
0.56599 0.00900481 0.
0.567991 0.00900508 0.
0.569991 0.0090053 0.
0.571992 0.00900553 0.
0.573992 0.00900546 0.
0.575992 0.00900536 0.
0.577991 0.00900529 0.
0.579992 0.0090054 0.
0.581992 0.00900551 0.
0.583992 0.00900563 0.
0.585992 0.00900579 0.
0.587991 0.00900595 0.
0.589991 0.00900622 0.
0.59199 0.00900657 0.
0.59399 0.00900693 0.
0.595993 0.00900649 0.
0.597997 0.00900583 0.
0.6 0.00900516 0.
0.602004 0.00900602 0.
0.604008 0.00900688 0.
0.606011 0.00900742 0.
0.608011 0.00900688 0.
0.61001 0.00900634 0.
0.61201 0.009006 0.
0.614009 0.00900589 0.
0.616009 0.00900579 0.
0.618009 0.00900565 0.
0.620009 0.00900549 0.
0.62201 0.00900533 0.
0.624009 0.00900535 0.
0.626009 0.00900539 0.
0.628009 0.0090054 0.
0.63001 0.0090052 0.
0.632011 0.009005 0.
0.634012 0.00900476 0.
0.636013 0.00900444 0.
0.638015 0.00900411 0.
0.640016 0.0090037 0.
0.642017 0.00900322 0.
0.644019 0.00900273 0.
0.64602 0.0090027 0.
0.648021 0.00900279 0.
0.650022 0.00900286 0.
0.652024 0.0090021 0.
0.654027 0.00900134 0.
0.65603 0.00900006 0.
0.658037 0.00899707 0.
0.660043 0.00899407 0.
0.662056 0.00898682 0.
0.664077 0.00897465 0.
0.666097 0.00896251 0.
0.66813 0.00895518 0.
0.670168 0.00894984 0.
0.672206 0.0089445 0.
0.674342 0.00887902 0.
0.676479 0.00881232 0.
0.678661 0.00874005 0.
0.680959 0.00864512 0.
0.683251 0.00855218 0.
0.685847 0.00835937 0.
0.688496 0.00815042 0.
0.691431 0.00775486 0.
0.694574 0.00719623 0.
0.698142 0.00659067 0.
0.702217 0.0057631 0.
0.706712 0.00435777 0.
0.711472 0.00237624 0.
0.483702 0.00218542 0.
0.488876 0.00423213 0.
0.493579 0.00601241 0.
0.497817 0.00751629 0.
0.501832 0.00856818 0.
0.505416 0.00920731 0.
0.508515 0.00966913 0.
0.511381 0.01 0.
0.51405 0.0102314 0.
0.516663 0.0104599 0.
0.51897 0.0105694 0.
0.521285 0.0106829 0.
0.52348 0.0107684 0.
0.525625 0.010846 0.
0.52777 0.0109234 0.
0.529812 0.010933 0.
0.531853 0.0109428 0.
0.533889 0.0109537 0.
0.535911 0.0109675 0.
0.537934 0.0109813 0.
0.539949 0.0109901 0.
0.541957 0.0109944 0.
0.543965 0.0109987 0.
0.545969 0.0110006 0.
0.547972 0.0110018 0.
0.549975 0.011003 0.
0.551977 0.0110031 0.
0.553978 0.0110032 0.
0.555979 0.0110033 0.
0.55798 0.0110036 0.
0.559982 0.0110039 0.
0.561984 0.0110043 0.
0.563985 0.0110047 0.
0.565986 0.0110052 0.
0.567988 0.0110056 0.
0.569989 0.0110059 0.
0.57199 0.0110062 0.
0.57399 0.0110063 0.
0.57599 0.0110063 0.
0.577989 0.0110063 0.
0.57999 0.0110064 0.
0.58199 0.0110066 0.
0.58399 0.0110067 0.
0.58599 0.011007 0.
0.58799 0.0110072 0.
0.58999 0.0110074 0.
0.591989 0.0110074 0.
0.593989 0.0110074 0.
0.595992 0.0110073 0.
0.597996 0.0110072 0.
0.6 0.011007 0.
0.602005 0.0110074 0.
0.604009 0.0110078 0.
0.606012 0.011008 0.
0.608012 0.0110078 0.
0.610011 0.0110076 0.
0.612011 0.0110073 0.
0.614011 0.0110071 0.
0.616011 0.0110069 0.
0.618011 0.0110067 0.
0.620012 0.0110065 0.
0.622012 0.0110064 0.
0.624012 0.0110063 0.
0.626012 0.0110062 0.
0.628012 0.0110061 0.
0.630013 0.0110057 0.
0.632014 0.0110054 0.
0.634016 0.011005 0.
0.636017 0.0110047 0.
0.638019 0.0110043 0.
0.64002 0.0110038 0.
0.642022 0.0110032 0.
0.644024 0.0110026 0.
0.646025 0.0110024 0.
0.648027 0.0110024 0.
0.650029 0.0110023 0.
0.652032 0.0110005 0.
0.654036 0.0109987 0.
0.656042 0.0109959 0.
0.658054 0.0109898 0.
0.660066 0.0109837 0.
0.662086 0.0109723 0.
0.664116 0.0109549 0.
0.666146 0.0109374 0.
0.6682 0.0109206 0.
0.670263 0.0109043 0.
0.672328 0.0108871 0.
0.674527 0.0107822 0.
0.676723 0.0106783 0.
0.679 0.0105633 0.
0.681402 0.0104249 0.
0.683819 0.0102853 0.
0.686657 0.00998966 0.
0.689582 0.00967094 0.
0.692922 0.00901243 0.
0.696399 0.00825536 0.
0.70034 0.00741363 0.
0.704968 0.00602049 0.
0.709737 0.00428718 0.
0.714875 0.0021626 0.
0.480223 0.00196761 0.
0.486018 0.00422594 0.
0.490996 0.00608662 0.
0.495627 0.00796217 0.
0.500393 0.00951403 0.
0.504182 0.0103032 0.
0.507476 0.0108772 0.
0.510596 0.0113862 0.
0.513382 0.0117625 0.
0.516129 0.0121412 0.
0.518552 0.012316 0.
0.52096 0.0124836 0.
0.523242 0.0126192 0.
0.525442 0.0127403 0.
0.527645 0.0128626 0.
0.529713 0.0128851 0.
0.531779 0.012906 0.
0.533836 0.0129267 0.
0.535868 0.0129456 0.
0.537901 0.0129645 0.
0.539924 0.0129776 0.
0.541938 0.0129854 0.
0.543952 0.0129933 0.
0.545959 0.0129968 0.
0.547964 0.012999 0.
0.549969 0.0130011 0.
0.551971 0.0130015 0.
0.553972 0.0130019 0.
0.555974 0.0130023 0.
0.557976 0.0130028 0.
0.559978 0.0130033 0.
0.561979 0.0130037 0.
0.563981 0.0130043 0.
0.565983 0.0130048 0.
0.567984 0.0130052 0.
0.569985 0.0130056 0.
0.571987 0.013006 0.
0.573987 0.0130062 0.
0.575987 0.0130064 0.
0.577987 0.0130066 0.
0.579988 0.0130068 0.
0.581989 0.013007 0.
0.583989 0.0130072 0.
0.585989 0.0130075 0.
0.587989 0.0130077 0.
0.589989 0.0130077 0.
0.591989 0.0130074 0.
0.593989 0.013007 0.
0.595992 0.0130073 0.
0.597996 0.0130077 0.
0.6 0.0130081 0.
0.602005 0.013008 0.
0.604009 0.0130078 0.
0.606012 0.0130078 0.
0.608012 0.0130079 0.
0.610012 0.013008 0.
0.612012 0.0130079 0.
0.614012 0.0130076 0.
0.616013 0.0130072 0.
0.618013 0.013007 0.
0.620014 0.0130068 0.
0.622014 0.0130067 0.
0.624015 0.0130064 0.
0.626015 0.0130061 0.
0.628015 0.0130058 0.
0.630017 0.0130053 0.
0.632018 0.0130048 0.
0.63402 0.0130044 0.
0.636021 0.013004 0.
0.638023 0.0130036 0.
0.640025 0.013003 0.
0.642027 0.0130023 0.
0.644029 0.0130015 0.
0.646031 0.013001 0.
0.648034 0.0130005 0.
0.650036 0.013 0.
0.652043 0.0129966 0.
0.654049 0.0129933 0.
0.656059 0.012988 0.
0.658079 0.0129769 0.
0.660099 0.0129659 0.
0.66213 0.0129494 0.
0.664172 0.0129269 0.
0.666214 0.0129044 0.
0.668299 0.0128701 0.
0.670398 0.012833 0.
0.672506 0.012791 0.
0.674773 0.012634 0.
0.677034 0.0124798 0.
0.67944 0.0122928 0.
0.681976 0.0120776 0.
0.684592 0.0118101 0.
0.68754 0.0113163 0.
0.690672 0.0107906 0.
0.694155 0.0100528 0.
0.697979 0.00918384 0.
0.702549 0.00792264 0.
0.707413 0.00614636 0.
0.712562 0.00424027 0.
0.718377 0.0019687 0.
0.476903 0.00180271 0.
0.483137 0.0042265 0.
0.488533 0.00609824 0.
0.493469 0.00820754 0.
0.498646 0.010072 0.
0.502649 0.0111402 0.
0.506311 0.0119891 0.
0.509684 0.0126868 0.
0.512679 0.0132519 0.
0.515546 0.01378 0.
0.518112 0.0140525 0.
0.520616 0.0142758 0.
0.522998 0.0144653 0.
0.525255 0.0146308 0.
0.527515 0.0147989 0.
0.529613 0.0148363 0.
0.531704 0.0148686 0.
0.533783 0.0148996 0.
0.535825 0.0149236 0.
0.537868 0.0149476 0.
0.539899 0.014965 0.
0.541919 0.0149764 0.
0.543939 0.0149878 0.
0.545949 0.014993 0.
0.547955 0.0149961 0.
0.549962 0.0149993 0.
0.551965 0.015 0.
0.553967 0.0150007 0.
0.555969 0.0150014 0.
0.557971 0.015002 0.
0.559974 0.0150026 0.
0.561975 0.0150032 0.
0.563977 0.0150038 0.
0.565979 0.0150043 0.
0.567981 0.0150048 0.
0.569982 0.0150053 0.
0.571984 0.0150057 0.
0.573985 0.0150062 0.
0.575985 0.0150066 0.
0.577986 0.015007 0.
0.579986 0.0150072 0.
0.581987 0.0150074 0.
0.583988 0.0150077 0.
0.585988 0.015008 0.
0.587988 0.0150082 0.
0.589989 0.015008 0.
0.591989 0.0150073 0.
0.593989 0.0150066 0.
0.595992 0.0150073 0.
0.597996 0.0150083 0.
0.6 0.0150093 0.
0.602005 0.0150086 0.
0.604009 0.0150079 0.
0.606012 0.0150075 0.
0.608013 0.015008 0.
0.610013 0.0150085 0.
0.612013 0.0150085 0.
0.614014 0.0150081 0.
0.616014 0.0150076 0.
0.618015 0.0150073 0.
0.620016 0.0150071 0.
0.622017 0.0150069 0.
0.624017 0.0150065 0.
0.626018 0.015006 0.
0.628018 0.0150055 0.
0.63002 0.0150049 0.
0.632022 0.0150042 0.
0.634024 0.0150037 0.
0.636025 0.0150034 0.
0.638027 0.015003 0.
0.640029 0.0150023 0.
0.642032 0.0150013 0.
0.644034 0.0150004 0.
0.646037 0.0149995 0.
0.648041 0.0149986 0.
0.650044 0.0149976 0.
0.652053 0.0149927 0.
0.654062 0.0149878 0.
0.656076 0.0149801 0.
0.658104 0.014964 0.
0.660133 0.0149479 0.
0.662174 0.0149264 0.
0.664228 0.0148988 0.
0.666282 0.0148713 0.
0.668401 0.0148182 0.
0.670537 0.0147599 0.
0.672692 0.0146905 0.
0.675027 0.0144803 0.
0.677354 0.0142746 0.
0.679916 0.0140042 0.
0.682591 0.0137095 0.
0.685421 0.0132603 0.
0.688466 0.0125731 0.
0.691863 0.0118044 0.
0.695537 0.0109096 0.
0.699498 0.00995466 0.
0.704705 0.00822778 0.
0.709866 0.00613133 0.
0.715637 0.00408055 0.
0.721986 0.00187724 0.
0.47345 0.00170168 0.
0.480029 0.00401705 0.
0.4859 0.00608328 0.
0.491072 0.0082506 0.
0.496513 0.0102983 0.
0.501026 0.0118457 0.
0.505065 0.0130094 0.
0.508664 0.0138888 0.
0.511924 0.014643 0.
0.514822 0.0152442 0.
0.517516 0.0156386 0.
0.520087 0.0159226 0.
0.522577 0.0161856 0.
0.524886 0.0163919 0.
0.527206 0.0166036 0.
0.529376 0.0166902 0.
0.531527 0.0167653 0.
0.533662 0.0168339 0.
0.535725 0.0168654 0.
0.537788 0.016897 0.
0.539837 0.0169232 0.
0.541872 0.0169445 0.
0.543907 0.0169658 0.
0.545925 0.016977 0.
0.547937 0.0169846 0.
0.54995 0.0169923 0.
0.551954 0.0169946 0.
0.553959 0.0169968 0.
0.555963 0.0169989 0.
0.557966 0.0170001 0.
0.559969 0.0170014 0.
0.561971 0.0170024 0.
0.563974 0.0170031 0.
0.565976 0.0170039 0.
0.567978 0.0170045 0.
0.56998 0.017005 0.
0.571982 0.0170055 0.
0.573982 0.0170061 0.
0.575983 0.0170067 0.
0.577984 0.0170073 0.
0.579985 0.0170075 0.
0.581986 0.0170078 0.
0.583987 0.0170081 0.
0.585988 0.0170084 0.
0.587988 0.0170087 0.
0.589989 0.0170084 0.
0.59199 0.0170076 0.
0.59399 0.0170069 0.
0.595993 0.0170078 0.
0.597997 0.0170092 0.
0.6 0.0170106 0.
0.602004 0.0170096 0.
0.604008 0.0170085 0.
0.606011 0.0170077 0.
0.608012 0.0170082 0.
0.610013 0.0170087 0.
0.612014 0.0170088 0.
0.614015 0.0170084 0.
0.616016 0.017008 0.
0.618017 0.0170077 0.
0.620018 0.0170074 0.
0.622019 0.0170071 0.
0.62402 0.0170065 0.
0.62602 0.0170059 0.
0.628021 0.0170052 0.
0.630023 0.0170045 0.
0.632025 0.0170037 0.
0.634027 0.017003 0.
0.636029 0.0170022 0.
0.638032 0.0170014 0.
0.640035 0.0170001 0.
0.642039 0.0169984 0.
0.644043 0.0169967 0.
0.646048 0.0169937 0.
0.648054 0.0169904 0.
0.650061 0.0169869 0.
0.652078 0.0169762 0.
0.654095 0.0169656 0.
0.65612 0.0169507 0.
0.658166 0.0169234 0.
0.660211 0.0168963 0.
0.662276 0.016864 0.
0.664358 0.0168263 0.
0.666438 0.0167889 0.
0.668632 0.0166824 0.
0.670842 0.0165676 0.
0.673084 0.0164348 0.
0.67547 0.0161797 0.
0.677843 0.0159344 0.
0.680545 0.0155699 0.
0.683301 0.0152082 0.
0.686302 0.0145652 0.
0.689442 0.0137327 0.
0.6931 0.012752 0.
0.697125 0.0116173 0.
0.701419 0.0103816 0.
0.7068 0.00837949 0.
0.712288 0.00609549 0.
0.718597 0.00400037 0.
0.725492 0.0017311 0.
0.4698 0.00155572 0.
0.476718 0.00381188 0.
0.483272 0.00601819 0.
0.488727 0.00818 0.
0.49439 0.0104394 0.
0.499263 0.0123847 0.
0.503585 0.0138246 0.
0.507452 0.0149013 0.
0.510883 0.0157814 0.
0.513866 0.0165006 0.
0.516784 0.0171189 0.
0.519452 0.0174978 0.
0.522095 0.0178712 0.
0.524477 0.0181287 0.
0.526871 0.0183923 0.
0.529123 0.0185328 0.
0.531339 0.0186542 0.
0.533537 0.0187665 0.
0.535621 0.0188059 0.
0.537705 0.0188455 0.
0.539774 0.0188807 0.
0.541824 0.018912 0.
0.543874 0.0189436 0.
0.545901 0.0189609 0.
0.547919 0.0189731 0.
0.549937 0.0189852 0.
0.551944 0.0189892 0.
0.55395 0.018993 0.
0.555956 0.0189964 0.
0.55796 0.0189982 0.
0.559964 0.0190001 0.
0.561967 0.0190016 0.
0.56397 0.0190025 0.
0.565973 0.0190034 0.
0.567975 0.0190041 0.
0.569977 0.0190047 0.
0.571979 0.0190053 0.
0.57398 0.019006 0.
0.575981 0.0190068 0.
0.577982 0.0190076 0.
0.579983 0.0190079 0.
0.581985 0.0190082 0.
0.583986 0.0190085 0.
0.585987 0.0190088 0.
0.587988 0.0190092 0.
0.589989 0.0190088 0.
0.59199 0.0190079 0.
0.593991 0.0190071 0.
0.595994 0.0190083 0.
0.597997 0.0190102 0.
0.6 0.019012 0.
0.602004 0.0190105 0.
0.604008 0.019009 0.
0.606011 0.019008 0.
0.608012 0.0190085 0.
0.610013 0.0190089 0.
0.612014 0.019009 0.
0.614015 0.0190087 0.
0.616017 0.0190084 0.
0.618018 0.019008 0.
0.620019 0.0190076 0.
0.622021 0.0190073 0.
0.624022 0.0190065 0.
0.626023 0.0190057 0.
0.628024 0.0190049 0.
0.630026 0.0190041 0.
0.632028 0.0190032 0.
0.634031 0.0190022 0.
0.636033 0.0190011 0.
0.638036 0.0189999 0.
0.640041 0.018998 0.
0.642046 0.0189955 0.
0.644051 0.0189931 0.
0.646059 0.018988 0.
0.648068 0.0189821 0.
0.650078 0.018976 0.
0.652103 0.0189596 0.
0.654129 0.0189432 0.
0.656165 0.0189208 0.
0.658228 0.0188821 0.
0.660291 0.0188437 0.
0.662381 0.0188002 0.
0.664492 0.0187516 0.
0.666602 0.0187033 0.
0.668883 0.0185332 0.
0.671177 0.0183557 0.
0.673518 0.01815 0.
0.675978 0.0178346 0.
0.678466 0.0175129 0.
0.681304 0.0170195 0.
0.68421 0.0164948 0.
0.687354 0.0156343 0.
0.690599 0.0147234 0.
0.694395 0.0136254 0.
0.698863 0.0121835 0.
0.703578 0.0105583 0.
0.709174 0.00836324 0.
0.71496 0.00595536 0.
0.721933 0.00397699 0.
0.729083 0.0015759 0.
0.465557 0.00130389 0.
0.47293 0.003752 0.
0.480435 0.00577728 0.
0.486231 0.00812677 0.
0.492109 0.0104096 0.
0.497195 0.0126061 0.
0.501947 0.0144248 0.
0.50604 0.0157094 0.
0.509623 0.0167855 0.
0.512852 0.017688 0.
0.515992 0.018529 0.
0.518802 0.0190421 0.
0.521577 0.0195299 0.
0.524071 0.0198396 0.
0.526529 0.0201414 0.
0.528857 0.0203391 0.
0.531131 0.0205134 0.
0.533391 0.0206814 0.
0.535499 0.0207298 0.
0.537609 0.0207787 0.
0.539699 0.0208245 0.
0.541765 0.0208681 0.
0.54383 0.020912 0.
0.545867 0.0209374 0.
0.547893 0.0209555 0.
0.54992 0.0209736 0.
0.551929 0.0209802 0.
0.553939 0.0209863 0.
0.555947 0.0209919 0.
0.557953 0.0209947 0.
0.559958 0.0209975 0.
0.561963 0.0209997 0.
0.563966 0.0210009 0.
0.565969 0.0210021 0.
0.567972 0.021003 0.
0.569975 0.0210038 0.
0.571977 0.0210045 0.
0.573978 0.0210054 0.
0.575979 0.0210063 0.
0.57798 0.0210072 0.
0.579982 0.0210075 0.
0.581984 0.0210079 0.
0.583985 0.0210082 0.
0.585987 0.0210086 0.
0.587988 0.0210089 0.
0.58999 0.0210086 0.
0.591991 0.0210078 0.
0.593992 0.0210069 0.
0.595995 0.0210082 0.
0.597998 0.0210101 0.
0.6 0.021012 0.
0.602004 0.0210104 0.
0.604007 0.0210089 0.
0.60601 0.0210077 0.
0.608011 0.0210081 0.
0.610013 0.0210085 0.
0.612014 0.0210086 0.
0.614016 0.0210083 0.
0.616018 0.021008 0.
0.618019 0.0210076 0.
0.620021 0.0210072 0.
0.622023 0.0210068 0.
0.624024 0.0210059 0.
0.626025 0.021005 0.
0.628026 0.021004 0.
0.630029 0.021003 0.
0.632031 0.0210019 0.
0.634034 0.0210006 0.
0.636038 0.0209989 0.
0.638042 0.0209971 0.
0.640048 0.0209943 0.
0.642055 0.0209906 0.
0.644062 0.0209869 0.
0.646074 0.0209788 0.
0.648087 0.0209697 0.
0.650101 0.02096 0.
0.652137 0.0209354 0.
0.654173 0.020911 0.
0.656223 0.020879 0.
0.658304 0.0208278 0.
0.660385 0.020777 0.
0.662505 0.0207166 0.
0.66465 0.0206501 0.
0.666796 0.0205839 0.
0.669153 0.0203461 0.
0.671517 0.0201092 0.
0.67395 0.0198332 0.
0.676483 0.0194665 0.
0.679122 0.0190541 0.
0.682079 0.0184333 0.
0.685205 0.0176672 0.
0.688489 0.0166146 0.
0.691995 0.0155169 0.
0.695973 0.0142791 0.
0.700689 0.0126256 0.
0.705709 0.0106347 0.
0.711535 0.00826339 0.
0.717603 0.0057992 0.
0.725636 0.00377805 0.
0.733669 0.00133271 0.
0.459757 0.000949571 0.
0.468999 0.00359093 0.
0.477608 0.00551792 0.
0.48373 0.00805071 0.
0.489884 0.0103478 0.
0.495196 0.0127469 0.
0.500363 0.0149122 0.
0.504607 0.0164103 0.
0.508386 0.017694 0.
0.511897 0.0188076 0.
0.515202 0.0198043 0.
0.518163 0.0204444 0.
0.521026 0.0209967 0.
0.523635 0.0214004 0.
0.526156 0.021782 0.
0.528564 0.0220716 0.
0.530889 0.0223207 0.
0.533209 0.0225682 0.
0.535352 0.022631 0.
0.537494 0.0226924 0.
0.539611 0.022752 0.
0.541692 0.0228108 0.
0.543773 0.0228701 0.
0.545823 0.0229057 0.
0.54786 0.0229315 0.
0.549897 0.0229573 0.
0.551911 0.0229674 0.
0.553924 0.0229769 0.
0.555936 0.0229853 0.
0.557944 0.0229894 0.
0.559952 0.0229936 0.
0.561958 0.0229966 0.
0.563962 0.0229983 0.
0.565966 0.0229999 0.
0.567969 0.0230012 0.
0.569972 0.0230022 0.
0.571975 0.0230032 0.
0.573976 0.0230042 0.
0.575977 0.0230052 0.
0.577979 0.0230061 0.
0.579981 0.0230065 0.
0.581983 0.0230069 0.
0.583984 0.0230073 0.
0.585986 0.0230076 0.
0.587988 0.0230079 0.
0.58999 0.0230077 0.
0.591991 0.023007 0.
0.593993 0.0230064 0.
0.595995 0.0230074 0.
0.597998 0.0230089 0.
0.6 0.0230105 0.
0.602004 0.0230092 0.
0.604007 0.0230079 0.
0.60601 0.023007 0.
0.608011 0.0230073 0.
0.610013 0.0230076 0.
0.612015 0.0230076 0.
0.614017 0.0230073 0.
0.616019 0.023007 0.
0.618021 0.0230066 0.
0.620022 0.0230061 0.
0.622024 0.0230057 0.
0.624026 0.0230047 0.
0.626027 0.0230037 0.
0.628028 0.0230026 0.
0.630032 0.0230011 0.
0.632035 0.0229997 0.
0.634039 0.022998 0.
0.636044 0.0229956 0.
0.638048 0.0229932 0.
0.640056 0.022989 0.
0.642066 0.0229836 0.
0.644076 0.0229781 0.
0.646093 0.0229663 0.
0.648111 0.0229529 0.
0.650131 0.0229385 0.
0.652181 0.0229031 0.
0.65423 0.0228678 0.
0.656296 0.0228236 0.
0.658397 0.022758 0.
0.660498 0.0226929 0.
0.662657 0.0226039 0.
0.664848 0.0225044 0.
0.66705 0.0223967 0.
0.669459 0.0220757 0.
0.671866 0.0217605 0.
0.67441 0.0213889 0.
0.677025 0.0209562 0.
0.679802 0.0204265 0.
0.682791 0.0197658 0.
0.686147 0.0187581 0.
0.689588 0.0175397 0.
0.693353 0.0162459 0.
0.69771 0.014712 0.
0.70264 0.0128998 0.
0.707887 0.0105912 0.
0.714031 0.00810413 0.
0.720448 0.00568273 0.
0.729449 0.00357075 0.
0.739529 0.000979627 0.
0.450643 0.000751989 0.
0.465118 0.00339546 0.
0.474621 0.00540819 0.
0.481343 0.0079077 0.
0.487801 0.0103114 0.
0.493232 0.0127995 0.
0.498514 0.0151465 0.
0.503014 0.0168857 0.
0.507146 0.0185172 0.
0.510902 0.0197882 0.
0.514219 0.0208434 0.
0.517405 0.0217268 0.
0.520401 0.0224033 0.
0.523177 0.0229417 0.
0.525767 0.0234063 0.
0.528263 0.0237941 0.
0.530639 0.0241189 0.
0.533019 0.0244478 0.
0.535201 0.0245312 0.
0.537376 0.0246054 0.
0.539522 0.0246788 0.
0.541618 0.0247529 0.
0.543715 0.0248276 0.
0.545778 0.0248739 0.
0.547826 0.0249074 0.
0.549874 0.0249409 0.
0.551893 0.0249547 0.
0.55391 0.0249674 0.
0.555926 0.0249788 0.
0.557935 0.0249842 0.
0.559945 0.0249896 0.
0.561952 0.0249936 0.
0.563957 0.0249957 0.
0.565962 0.0249978 0.
0.567966 0.0249993 0.
0.569969 0.0250006 0.
0.571973 0.0250019 0.
0.573974 0.0250029 0.
0.575976 0.025004 0.
0.577977 0.025005 0.
0.579979 0.0250055 0.
0.581981 0.0250059 0.
0.583984 0.0250063 0.
0.585986 0.0250066 0.
0.587988 0.025007 0.
0.58999 0.0250068 0.
0.591992 0.0250063 0.
0.593994 0.0250059 0.
0.595996 0.0250066 0.
0.597998 0.0250078 0.
0.6 0.025009 0.
0.602003 0.025008 0.
0.604006 0.025007 0.
0.606009 0.0250063 0.
0.608011 0.0250064 0.
0.610013 0.0250066 0.
0.612015 0.0250065 0.
0.614017 0.0250062 0.
0.616019 0.0250059 0.
0.618022 0.0250055 0.
0.620024 0.0250051 0.
0.622026 0.0250046 0.
0.624028 0.0250035 0.
0.626029 0.0250023 0.
0.628031 0.0250011 0.
0.630034 0.0249993 0.
0.632038 0.0249976 0.
0.634043 0.0249954 0.
0.636049 0.0249923 0.
0.638055 0.0249892 0.
0.640065 0.0249837 0.
0.642077 0.0249765 0.
0.64409 0.0249693 0.
0.646112 0.0249537 0.
0.648135 0.0249361 0.
0.650161 0.0249169 0.
0.652224 0.0248705 0.
0.654288 0.0248244 0.
0.65637 0.0247677 0.
0.658491 0.0246876 0.
0.660612 0.0246081 0.
0.662814 0.0244879 0.
0.66505 0.0243546 0.
0.667313 0.0241992 0.
0.669772 0.0237941 0.
0.672223 0.0234002 0.
0.674904 0.0229234 0.
0.677627 0.0224096 0.
0.68061 0.0216611 0.
0.683692 0.0208505 0.
0.687138 0.0197036 0.
0.69077 0.0183656 0.
0.694718 0.0169014 0.
0.699496 0.0150154 0.
0.704595 0.0130264 0.
0.710081 0.010499 0.
0.716467 0.00790014 0.
0.723362 0.00559241 0.
0.733484 0.00348543 0.
0.748771 0.000755811 0.
0.440722 0.000878496 0.
0.461391 0.00307402 0.
0.471645 0.00536433 0.
0.479052 0.00770138 0.
0.485582 0.0103006 0.
0.491236 0.0127604 0.
0.496616 0.0152496 0.
0.501377 0.017239 0.
0.505909 0.0192483 0.
0.50967 0.0205981 0.
0.513177 0.0218039 0.
0.516601 0.0229699 0.
0.519722 0.0237602 0.
0.522687 0.0244451 0.
0.525323 0.0249764 0.
0.527881 0.0254479 0.
0.530287 0.0258201 0.
0.532709 0.0261988 0.
0.534956 0.0263373 0.
0.537178 0.0264528 0.
0.539369 0.0265625 0.
0.541488 0.0266516 0.
0.543609 0.0267416 0.
0.545693 0.0268043 0.
0.54776 0.0268534 0.
0.549828 0.0269031 0.
0.551856 0.0269247 0.
0.553881 0.0269445 0.
0.555904 0.0269623 0.
0.557918 0.0269706 0.
0.559932 0.0269789 0.
0.561943 0.0269854 0.
0.56395 0.0269893 0.
0.565957 0.0269933 0.
0.567962 0.026996 0.
0.569966 0.026998 0.
0.57197 0.0270001 0.
0.573972 0.0270014 0.
0.575974 0.0270026 0.
0.577976 0.0270038 0.
0.579978 0.0270042 0.
0.58198 0.0270047 0.
0.583983 0.0270052 0.
0.585985 0.0270056 0.
0.587988 0.0270059 0.
0.58999 0.027006 0.
0.591992 0.0270057 0.
0.593994 0.0270054 0.
0.595996 0.0270061 0.
0.597998 0.027007 0.
0.6 0.027008 0.
0.602003 0.0270071 0.
0.604006 0.0270062 0.
0.606009 0.0270055 0.
0.608011 0.0270056 0.
0.610013 0.0270056 0.
0.612015 0.0270055 0.
0.614018 0.0270051 0.
0.61602 0.0270048 0.
0.618023 0.0270044 0.
0.620025 0.0270039 0.
0.622028 0.0270034 0.
0.62403 0.0270019 0.
0.626032 0.0270004 0.
0.628034 0.0269987 0.
0.630039 0.0269959 0.
0.632043 0.0269931 0.
0.63405 0.0269893 0.
0.636059 0.0269837 0.
0.638068 0.0269781 0.
0.640082 0.0269695 0.
0.6421 0.0269588 0.
0.644119 0.0269481 0.
0.64615 0.0269243 0.
0.648184 0.0268977 0.
0.650222 0.0268683 0.
0.652308 0.0268024 0.
0.654392 0.0267372 0.
0.656503 0.026661 0.
0.658659 0.0265626 0.
0.660811 0.0264655 0.
0.663064 0.026296 0.
0.665346 0.0261134 0.
0.667679 0.0258865 0.
0.670169 0.0254267 0.
0.672648 0.0249832 0.
0.675449 0.0244216 0.
0.678298 0.0238046 0.
0.681467 0.0228246 0.
0.684741 0.0218007 0.
0.68826 0.0204951 0.
0.691999 0.0190789 0.
0.696328 0.017307 0.
0.701291 0.0152526 0.
0.706486 0.0130911 0.
0.712183 0.0104016 0.
0.718869 0.00774486 0.
0.726343 0.00539698 0.
0.737139 0.00324291 0.
0.760896 0.00102577 0.
0.431074 0.00127476 0.
0.457846 0.00274353 0.
0.468551 0.00527234 0.
0.476734 0.00751673 0.
0.483388 0.0102656 0.
0.489279 0.0126948 0.
0.494742 0.0153157 0.
0.499764 0.0175251 0.
0.504512 0.0197919 0.
0.508311 0.0212768 0.
0.512095 0.0226815 0.
0.515693 0.0240649 0.
0.518932 0.025 0.
0.521997 0.0257986 0.
0.524681 0.0264086 0.
0.527383 0.0270292 0.
0.529864 0.0274679 0.
0.532351 0.0279053 0.
0.534681 0.0281153 0.
0.536958 0.0282832 0.
0.539205 0.0284402 0.
0.54135 0.0285456 0.
0.543497 0.028652 0.
0.545606 0.0287321 0.
0.547693 0.0287979 0.
0.549781 0.0288643 0.
0.551818 0.0288943 0.
0.553851 0.0289214 0.
0.555882 0.0289457 0.
0.5579 0.0289569 0.
0.559919 0.0289682 0.
0.561934 0.0289772 0.
0.563943 0.028983 0.
0.565952 0.0289888 0.
0.567958 0.0289927 0.
0.569963 0.0289955 0.
0.571968 0.0289983 0.
0.57397 0.0289999 0.
0.575972 0.0290012 0.
0.577974 0.0290025 0.
0.579977 0.029003 0.
0.581979 0.0290035 0.
0.583982 0.029004 0.
0.585985 0.0290045 0.
0.587988 0.0290049 0.
0.58999 0.0290051 0.
0.591992 0.029005 0.
0.593994 0.0290049 0.
0.595996 0.0290055 0.
0.597998 0.0290063 0.
0.6 0.029007 0.
0.602003 0.0290062 0.
0.604006 0.0290055 0.
0.606009 0.0290048 0.
0.608011 0.0290047 0.
0.610013 0.0290047 0.
0.612016 0.0290045 0.
0.614019 0.0290041 0.
0.616021 0.0290037 0.
0.618024 0.0290032 0.
0.620027 0.0290027 0.
0.622029 0.0290021 0.
0.624032 0.0290003 0.
0.626034 0.0289984 0.
0.628037 0.0289962 0.
0.630043 0.0289924 0.
0.632048 0.0289886 0.
0.634056 0.0289832 0.
0.636068 0.0289751 0.
0.63808 0.0289669 0.
0.6401 0.0289552 0.
0.642124 0.0289409 0.
0.644148 0.0289266 0.
0.646189 0.0288944 0.
0.648235 0.0288587 0.
0.650286 0.0288183 0.
0.652394 0.0287318 0.
0.654501 0.0286462 0.
0.656646 0.0285484 0.
0.658841 0.0284287 0.
0.661031 0.0283106 0.
0.663347 0.0280787 0.
0.665684 0.0278363 0.
0.668112 0.027514 0.
0.670678 0.0269734 0.
0.673288 0.0264231 0.
0.676153 0.0257603 0.
0.679097 0.0250172 0.
0.682365 0.0238958 0.
0.685854 0.02266 0.
0.689454 0.0212097 0.
0.693284 0.019694 0.
0.697988 0.0175893 0.
0.703159 0.0154081 0.
0.708461 0.0130217 0.
0.714349 0.0102596 0.
0.72122 0.007654 0.
0.72926 0.00524373 0.
0.740344 0.00295129 0.
0.770761 0.00161263 0.
0.425536 0.00168406 0.
0.454446 0.00250411 0.
0.465455 0.00517089 0.
0.47432 0.00739042 0.
0.481168 0.0101536 0.
0.487333 0.0126459 0.
0.49288 0.015313 0.
0.498055 0.0176912 0.
0.502804 0.0200124 0.
0.506897 0.0218466 0.
0.510996 0.0234757 0.
0.514645 0.0249405 0.
0.517948 0.0260494 0.
0.521134 0.0270273 0.
0.524005 0.0278009 0.
0.526843 0.0285697 0.
0.529437 0.0291036 0.
0.531992 0.0295954 0.
0.534408 0.0298761 0.
0.536735 0.0300947 0.
0.539035 0.0303049 0.
0.541205 0.0304251 0.
0.543378 0.0305468 0.
0.545511 0.030645 0.
0.547617 0.0307296 0.
0.549724 0.0308155 0.
0.551772 0.0308559 0.
0.553815 0.0308918 0.
0.555855 0.0309243 0.
0.557878 0.0309391 0.
0.559902 0.0309539 0.
0.561921 0.030966 0.
0.563933 0.0309741 0.
0.565945 0.0309823 0.
0.567953 0.0309877 0.
0.569959 0.0309918 0.
0.571964 0.0309958 0.
0.573967 0.0309977 0.
0.57597 0.0309993 0.
0.577973 0.0310008 0.
0.579976 0.0310014 0.
0.581979 0.031002 0.
0.583982 0.0310025 0.
0.585984 0.0310031 0.
0.587987 0.0310036 0.
0.58999 0.0310039 0.
0.591992 0.031004 0.
0.593994 0.0310041 0.
0.595996 0.0310046 0.
0.597998 0.0310053 0.
0.600001 0.0310059 0.
0.602003 0.0310052 0.
0.604006 0.0310044 0.
0.606009 0.0310038 0.
0.608011 0.0310036 0.
0.610014 0.0310034 0.
0.612016 0.0310031 0.
0.614019 0.0310027 0.
0.616022 0.0310023 0.
0.618025 0.0310017 0.
0.620028 0.0310009 0.
0.622031 0.0310002 0.
0.624034 0.030998 0.
0.626038 0.0309956 0.
0.628041 0.0309928 0.
0.630048 0.0309875 0.
0.632055 0.0309822 0.
0.634065 0.0309747 0.
0.636081 0.0309634 0.
0.638097 0.030952 0.
0.640122 0.0309365 0.
0.642152 0.030918 0.
0.644182 0.0308996 0.
0.646236 0.0308564 0.
0.648294 0.0308089 0.
0.65036 0.0307549 0.
0.65249 0.0306472 0.
0.654618 0.0305409 0.
0.656796 0.0304185 0.
0.659027 0.0302762 0.
0.661255 0.0301387 0.
0.663629 0.0298459 0.
0.666019 0.0295443 0.
0.668553 0.0291201 0.
0.671198 0.0285003 0.
0.673965 0.0278207 0.
0.676928 0.0270209 0.
0.680061 0.0260183 0.
0.683303 0.0248374 0.
0.68698 0.0234549 0.
0.6908 0.021782 0.
0.694682 0.0201745 0.
0.699677 0.017772 0.
0.704997 0.0155008 0.
0.710446 0.0128996 0.
0.716497 0.0101013 0.
0.723611 0.00755927 0.
0.732355 0.00522273 0.
0.743435 0.00264076 0.
0.774032 0.0020044 0.
0.422684 0.00203016 0.
0.451038 0.00244295 0.
0.462217 0.00498744 0.
0.47183 0.00730998 0.
0.478969 0.00993983 0.
0.485353 0.012634 0.
0.491019 0.015235 0.
0.496307 0.0177974 0.
0.501142 0.0201782 0.
0.505504 0.0223588 0.
0.509738 0.0241455 0.
0.513469 0.0256524 0.
0.516986 0.027054 0.
0.520277 0.0281924 0.
0.523357 0.0291491 0.
0.5263 0.0300173 0.
0.52899 0.0306285 0.
0.531597 0.0311612 0.
0.534101 0.0315363 0.
0.536479 0.0318368 0.
0.538847 0.0321345 0.
0.541045 0.0322736 0.
0.543246 0.0324141 0.
0.545404 0.032535 0.
0.547528 0.0326437 0.
0.549653 0.0327539 0.
0.551716 0.032808 0.
0.553771 0.0328549 0.
0.555822 0.0328976 0.
0.557851 0.0329167 0.
0.559881 0.0329359 0.
0.561905 0.0329517 0.
0.56392 0.0329627 0.
0.565936 0.0329737 0.
0.567946 0.0329812 0.
0.569953 0.0329868 0.
0.571961 0.0329924 0.
0.573965 0.0329948 0.
0.575968 0.0329967 0.
0.577971 0.0329985 0.
0.579974 0.0329993 0.
0.581978 0.0330001 0.
0.583981 0.0330008 0.
0.585984 0.0330014 0.
0.587987 0.033002 0.
0.589989 0.0330024 0.
0.591992 0.0330026 0.
0.593994 0.0330029 0.
0.595996 0.0330034 0.
0.597998 0.033004 0.
0.600001 0.0330047 0.
0.602003 0.0330039 0.
0.604006 0.0330031 0.
0.606009 0.0330024 0.
0.608011 0.0330021 0.
0.610014 0.0330018 0.
0.612017 0.0330014 0.
0.61402 0.033001 0.
0.616023 0.0330006 0.
0.618026 0.0329997 0.
0.62003 0.0329986 0.
0.622033 0.0329975 0.
0.624037 0.0329948 0.
0.626041 0.0329918 0.
0.628046 0.0329883 0.
0.630055 0.0329811 0.
0.632064 0.0329739 0.
0.634077 0.0329637 0.
0.636098 0.0329484 0.
0.638118 0.032933 0.
0.640149 0.032913 0.
0.642186 0.0328896 0.
0.644224 0.0328663 0.
0.646293 0.0328083 0.
0.648366 0.0327452 0.
0.65045 0.0326732 0.
0.652601 0.0325416 0.
0.65475 0.0324116 0.
0.656964 0.0322491 0.
0.659232 0.0320609 0.
0.661505 0.0318745 0.
0.663953 0.0315128 0.
0.666395 0.0311528 0.
0.669017 0.0306187 0.
0.671685 0.029962 0.
0.674611 0.029163 0.
0.677666 0.0282483 0.
0.681004 0.0269685 0.
0.684402 0.0256442 0.
0.688087 0.0241956 0.
0.692188 0.0222698 0.
0.696359 0.0203531 0.
0.701373 0.0179209 0.
0.706865 0.0155277 0.
0.712378 0.0127795 0.
0.718641 0.00997511 0.
0.726025 0.00734979 0.
0.735499 0.00521305 0.
0.746463 0.00246699 0.
0.775501 0.00244093 0.
0.422259 0.00246726 0.
0.447917 0.00249679 0.
0.459251 0.00478565 0.
0.469361 0.00719547 0.
0.476898 0.00977368 0.
0.483419 0.012604 0.
0.489215 0.015166 0.
0.494636 0.017886 0.
0.499556 0.0203284 0.
0.50405 0.0227406 0.
0.508326 0.0246714 0.
0.512286 0.026315 0.
0.516008 0.0279813 0.
0.519401 0.0292592 0.
0.522621 0.0303474 0.
0.525596 0.031297 0.
0.528457 0.0320751 0.
0.531159 0.0326938 0.
0.53378 0.0331829 0.
0.536214 0.0335678 0.
0.538649 0.033958 0.
0.540881 0.0341205 0.
0.54311 0.0342801 0.
0.545297 0.0344236 0.
0.547438 0.0345565 0.
0.549582 0.0346914 0.
0.551659 0.0347597 0.
0.553726 0.0348178 0.
0.555789 0.0348709 0.
0.557824 0.0348943 0.
0.55986 0.0349178 0.
0.561888 0.0349374 0.
0.563907 0.0349512 0.
0.565927 0.0349651 0.
0.567939 0.0349746 0.
0.569948 0.0349818 0.
0.571957 0.034989 0.
0.573962 0.0349919 0.
0.575966 0.0349941 0.
0.57797 0.0349962 0.
0.579973 0.0349972 0.
0.581977 0.0349982 0.
0.58398 0.0349991 0.
0.585983 0.0349998 0.
0.587986 0.0350004 0.
0.589989 0.0350009 0.
0.591991 0.0350013 0.
0.593994 0.0350016 0.
0.595996 0.0350022 0.
0.597998 0.0350028 0.
0.600001 0.0350034 0.
0.602004 0.0350026 0.
0.604006 0.0350017 0.
0.606009 0.035001 0.
0.608012 0.0350006 0.
0.610014 0.0350002 0.
0.612017 0.0349997 0.
0.61402 0.0349993 0.
0.616023 0.0349988 0.
0.618027 0.0349977 0.
0.620031 0.0349963 0.
0.622035 0.0349949 0.
0.62404 0.0349916 0.
0.626045 0.0349881 0.
0.628051 0.0349839 0.
0.630062 0.0349747 0.
0.632073 0.0349655 0.
0.634089 0.0349526 0.
0.636114 0.0349333 0.
0.63814 0.034914 0.
0.640176 0.0348894 0.
0.642221 0.0348611 0.
0.644265 0.0348329 0.
0.646349 0.0347598 0.
0.648439 0.0346808 0.
0.650541 0.0345905 0.
0.652714 0.0344348 0.
0.654884 0.034281 0.
0.657135 0.0340747 0.
0.659441 0.0338399 0.
0.661768 0.0336031 0.
0.664295 0.0331674 0.
0.666806 0.0327359 0.
0.669564 0.0320459 0.
0.672321 0.0312855 0.
0.675347 0.0303605 0.
0.678446 0.0293641 0.
0.681948 0.0278612 0.
0.685584 0.0263632 0.
0.689196 0.0248737 0.
0.693579 0.0226896 0.
0.698025 0.0204655 0.
0.703126 0.0180431 0.
0.708729 0.0154575 0.
0.714306 0.0126214 0.
0.720803 0.00990288 0.
0.728325 0.00718698 0.
0.738455 0.00516618 0.
0.749285 0.00249181 0.
0.775684 0.00296895 0.
0.422717 0.00298926 0.
0.445261 0.00264988 0.
0.456598 0.00461876 0.
0.467031 0.00710633 0.
0.474874 0.00968618 0.
0.481601 0.0125601 0.
0.487513 0.0151634 0.
0.49305 0.0179667 0.
0.498001 0.0204571 0.
0.502596 0.0229978 0.
0.506897 0.0251006 0.
0.511111 0.0269421 0.
0.514939 0.0287501 0.
0.518446 0.0301854 0.
0.521783 0.0314622 0.
0.524854 0.0325379 0.
0.527898 0.0334982 0.
0.530686 0.0341964 0.
0.53343 0.0348005 0.
0.535894 0.0352434 0.
0.538366 0.035703 0.
0.540644 0.0359059 0.
0.542907 0.0360944 0.
0.545131 0.0362689 0.
0.547296 0.0364238 0.
0.549465 0.0365809 0.
0.551565 0.0366723 0.
0.553653 0.0367519 0.
0.555736 0.0368259 0.
0.557779 0.0368543 0.
0.559822 0.0368827 0.
0.561858 0.0369078 0.
0.563884 0.0369278 0.
0.56591 0.0369478 0.
0.567927 0.0369614 0.
0.569938 0.0369712 0.
0.57195 0.036981 0.
0.573956 0.0369853 0.
0.575962 0.0369887 0.
0.577967 0.036992 0.
0.579971 0.0369936 0.
0.581976 0.0369953 0.
0.583979 0.0369967 0.
0.585983 0.0369977 0.
0.587986 0.0369987 0.
0.589989 0.0369995 0.
0.591991 0.0370001 0.
0.593994 0.0370007 0.
0.595996 0.0370011 0.
0.597999 0.0370015 0.
0.600001 0.0370019 0.
0.602004 0.0370012 0.
0.604006 0.0370005 0.
0.606009 0.0369998 0.
0.608012 0.0369992 0.
0.610014 0.0369986 0.
0.612017 0.0369978 0.
0.614021 0.0369969 0.
0.616024 0.0369959 0.
0.618029 0.0369941 0.
0.620034 0.036992 0.
0.622039 0.0369898 0.
0.624046 0.036985 0.
0.626052 0.0369799 0.
0.62806 0.0369738 0.
0.630075 0.0369611 0.
0.63209 0.0369484 0.
0.634112 0.0369304 0.
0.636145 0.0369033 0.
0.638178 0.0368763 0.
0.640223 0.0368456 0.
0.642276 0.0368123 0.
0.644329 0.0367791 0.
0.646441 0.0366768 0.
0.648556 0.036569 0.
0.650687 0.0364517 0.
0.652884 0.0362778 0.
0.655076 0.0361061 0.
0.657374 0.0358471 0.
0.659715 0.035562 0.
0.662098 0.0352704 0.
0.664665 0.0347899 0.
0.667265 0.0342736 0.
0.670144 0.0334381 0.
0.673043 0.0325508 0.
0.676201 0.0314431 0.
0.679386 0.0302476 0.
0.682889 0.0287001 0.
0.686805 0.0270002 0.
0.690637 0.025235 0.
0.694943 0.0230614 0.
0.699617 0.0205715 0.
0.704849 0.0181404 0.
0.710483 0.0153886 0.
0.71617 0.0125059 0.
0.722827 0.00987314 0.
0.730593 0.00710616 0.
0.741013 0.00509355 0.
0.751867 0.00261779 0.
0.775399 0.00354366 0.
0.423314 0.00357107 0.
0.443064 0.00290127 0.
0.454239 0.00458653 0.
0.46483 0.0070737 0.
0.472979 0.00965119 0.
0.479883 0.0125055 0.
0.485811 0.0151961 0.
0.4915 0.0180058 0.
0.496481 0.0205705 0.
0.50117 0.0231774 0.
0.5055 0.02548 0.
0.509886 0.0275127 0.
0.513799 0.0293963 0.
0.517408 0.0310103 0.
0.520842 0.0324858 0.
0.524081 0.033714 0.
0.527279 0.0348397 0.
0.530101 0.0355745 0.
0.532929 0.03628 0.
0.535462 0.0368153 0.
0.537996 0.0373706 0.
0.540351 0.0376498 0.
0.542666 0.0378836 0.
0.544942 0.0381015 0.
0.547138 0.0382807 0.
0.549339 0.0384625 0.
0.551467 0.0385796 0.
0.553577 0.0386829 0.
0.555683 0.0387801 0.
0.557733 0.0388135 0.
0.559784 0.0388471 0.
0.561828 0.0388777 0.
0.56386 0.038904 0.
0.565893 0.0389305 0.
0.567914 0.0389481 0.
0.569929 0.0389606 0.
0.571943 0.0389731 0.
0.573951 0.0389787 0.
0.575958 0.0389834 0.
0.577964 0.0389878 0.
0.579969 0.0389901 0.
0.581974 0.0389924 0.
0.583979 0.0389943 0.
0.585982 0.0389957 0.
0.587986 0.038997 0.
0.589989 0.038998 0.
0.591991 0.0389989 0.
0.593994 0.0389997 0.
0.595996 0.039 0.
0.597999 0.0390002 0.
0.600001 0.0390004 0.
0.602004 0.0389998 0.
0.604006 0.0389992 0.
0.606009 0.0389986 0.
0.608012 0.0389978 0.
0.610014 0.038997 0.
0.612018 0.0389959 0.
0.614022 0.0389945 0.
0.616026 0.038993 0.
0.618031 0.0389905 0.
0.620037 0.0389876 0.
0.622043 0.0389846 0.
0.624051 0.0389783 0.
0.62606 0.0389716 0.
0.62807 0.0389636 0.
0.630089 0.0389474 0.
0.632108 0.0389311 0.
0.634135 0.0389078 0.
0.636176 0.0388728 0.
0.638217 0.0388379 0.
0.640271 0.038801 0.
0.642333 0.0387624 0.
0.644395 0.0387239 0.
0.646538 0.0385888 0.
0.648683 0.0384485 0.
0.650847 0.0383011 0.
0.653075 0.0381056 0.
0.655298 0.0379124 0.
0.657669 0.0375809 0.
0.660073 0.0372276 0.
0.662559 0.0368371 0.
0.665189 0.036256 0.
0.667867 0.0356311 0.
0.670758 0.0347582 0.
0.673821 0.0337337 0.
0.67708 0.0324719 0.
0.680458 0.0309958 0.
0.683913 0.0294293 0.
0.688019 0.0275724 0.
0.692087 0.0255291 0.
0.696355 0.0233243 0.
0.701167 0.0206808 0.
0.706452 0.0182452 0.
0.712137 0.015358 0.
0.717933 0.0124383 0.
0.724776 0.0098169 0.
0.732779 0.00713637 0.
0.743289 0.00503017 0.
0.754029 0.0028293 0.
0.774979 0.00418231 0.
0.423704 0.00420129 0.
0.441048 0.00322122 0.
0.45216 0.00470518 0.
0.462747 0.00704427 0.
0.471164 0.00966398 0.
0.478216 0.0124455 0.
0.484174 0.01525 0.
0.489982 0.0180361 0.
0.49496 0.0206776 0.
0.49978 0.0233314 0.
0.504105 0.0257622 0.
0.508586 0.0279729 0.
0.512573 0.0299255 0.
0.516346 0.0317781 0.
0.51986 0.0334051 0.
0.523283 0.0348031 0.
0.526461 0.035958 0.
0.529441 0.0368568 0.
0.532375 0.037706 0.
0.535021 0.0383698 0.
0.537617 0.0390198 0.
0.540056 0.0393855 0.
0.542423 0.0396639 0.
0.544756 0.0399277 0.
0.546979 0.0401263 0.
0.549208 0.0403296 0.
0.551364 0.0404735 0.
0.553495 0.0406033 0.
0.555623 0.040728 0.
0.557682 0.0407666 0.
0.559741 0.0408053 0.
0.561793 0.0408417 0.
0.563832 0.040875 0.
0.565871 0.0409085 0.
0.567898 0.040931 0.
0.569916 0.0409469 0.
0.571934 0.0409628 0.
0.573944 0.0409703 0.
0.575952 0.0409766 0.
0.577961 0.0409825 0.
0.579966 0.0409856 0.
0.581972 0.0409886 0.
0.583977 0.0409913 0.
0.585981 0.040993 0.
0.587985 0.0409948 0.
0.589988 0.0409962 0.
0.591991 0.0409972 0.
0.593994 0.0409983 0.
0.595996 0.0409986 0.
0.597999 0.0409987 0.
0.600001 0.0409988 0.
0.602004 0.0409983 0.
0.604006 0.0409977 0.
0.606009 0.040997 0.
0.608012 0.040996 0.
0.610015 0.0409949 0.
0.612019 0.0409934 0.
0.614023 0.0409913 0.
0.616028 0.0409892 0.
0.618034 0.0409859 0.
0.620041 0.040982 0.
0.622048 0.0409782 0.
0.624058 0.0409698 0.
0.626069 0.040961 0.
0.628082 0.0409505 0.
0.630106 0.0409297 0.
0.632129 0.040909 0.
0.634163 0.0408797 0.
0.636212 0.0408368 0.
0.638261 0.040794 0.
0.640325 0.0407491 0.
0.642399 0.0407027 0.
0.644471 0.0406567 0.
0.64664 0.0404867 0.
0.648812 0.0403139 0.
0.651009 0.0401376 0.
0.653265 0.0399262 0.
0.655517 0.0397146 0.
0.657968 0.0393026 0.
0.660437 0.038881 0.
0.663035 0.038379 0.
0.66574 0.0376896 0.
0.668578 0.0368866 0.
0.671546 0.0359066 0.
0.674644 0.0347966 0.
0.677964 0.0334486 0.
0.681556 0.0316877 0.
0.685179 0.0299733 0.
0.689263 0.0280725 0.
0.693531 0.0257795 0.
0.697852 0.023455 0.
0.702786 0.0207782 0.
0.708041 0.0182868 0.
0.71379 0.0153004 0.
0.719649 0.0124105 0.
0.726634 0.0097351 0.
0.734862 0.00721747 0.
0.745334 0.00500613 0.
0.755937 0.00309856 0.
0.774594 0.00485531 0.
0.423955 0.00494256 0.
0.439294 0.00358863 0.
0.450308 0.00488828 0.
0.460829 0.00704233 0.
0.469368 0.00966475 0.
0.476594 0.012402 0.
0.482581 0.0153011 0.
0.488482 0.0180654 0.
0.49344 0.0207771 0.
0.498389 0.0234874 0.
0.502708 0.0259681 0.
0.507248 0.0283356 0.
0.511341 0.0304041 0.
0.515261 0.0324552 0.
0.518881 0.034223 0.
0.522362 0.0357496 0.
0.525619 0.0370303 0.
0.528792 0.0381073 0.
0.531827 0.0390866 0.
0.534595 0.039874 0.
0.537201 0.0405667 0.
0.539717 0.0410268 0.
0.542133 0.0413592 0.
0.544531 0.0416848 0.
0.546791 0.0419179 0.
0.549061 0.0421573 0.
0.55125 0.0423399 0.
0.553402 0.0425055 0.
0.555553 0.042667 0.
0.557622 0.0427112 0.
0.559691 0.0427555 0.
0.561752 0.0427984 0.
0.563798 0.0428398 0.
0.565845 0.0428814 0.
0.567877 0.0429098 0.
0.569899 0.0429299 0.
0.571922 0.04295 0.
0.573935 0.0429599 0.
0.575945 0.0429682 0.
0.577956 0.0429761 0.
0.579962 0.0429801 0.
0.581969 0.0429841 0.
0.583975 0.0429875 0.
0.58598 0.0429898 0.
0.587984 0.0429921 0.
0.589988 0.0429938 0.
0.591991 0.0429952 0.
0.593994 0.0429965 0.
0.595996 0.042997 0.
0.597998 0.0429972 0.
0.600001 0.0429974 0.
0.602004 0.0429966 0.
0.604007 0.0429959 0.
0.606009 0.042995 0.
0.608013 0.0429936 0.
0.610016 0.0429923 0.
0.61202 0.0429903 0.
0.614025 0.0429874 0.
0.61603 0.0429845 0.
0.618038 0.0429802 0.
0.620046 0.0429753 0.
0.622055 0.0429703 0.
0.624068 0.0429594 0.
0.626081 0.0429479 0.
0.628097 0.0429342 0.
0.630126 0.0429077 0.
0.632156 0.0428813 0.
0.634196 0.0428452 0.
0.636254 0.0427941 0.
0.638311 0.0427432 0.
0.640389 0.0426867 0.
0.642478 0.0426275 0.
0.644567 0.042567 0.
0.646758 0.0423559 0.
0.648949 0.0421434 0.
0.651196 0.0419157 0.
0.65352 0.0416483 0.
0.655832 0.0413898 0.
0.65833 0.040925 0.
0.660828 0.04046 0.
0.663502 0.0398623 0.
0.666276 0.0390895 0.
0.669294 0.0381132 0.
0.672353 0.0370267 0.
0.675613 0.0357015 0.
0.678932 0.0342643 0.
0.682642 0.0323412 0.
0.686517 0.030428 0.
0.690571 0.0284644 0.
0.694967 0.0259992 0.
0.699361 0.0235373 0.
0.704402 0.0208671 0.
0.709639 0.0182673 0.
0.715422 0.0152348 0.
0.7214 0.0124153 0.
0.728424 0.0096632 0.
0.736871 0.007319 0.
0.747217 0.0050803 0.
0.757628 0.00344741 0.
0.774263 0.00560846 0.
0.424277 0.0057159 0.
0.437925 0.00399343 0.
0.44879 0.00513331 0.
0.459145 0.00709048 0.
0.467707 0.00969207 0.
0.475037 0.0124287 0.
0.481036 0.01531 0.
0.487018 0.0181314 0.
0.491968 0.0208481 0.
0.496949 0.0236137 0.
0.501314 0.0261272 0.
0.505971 0.0286662 0.
0.510139 0.030847 0.
0.514135 0.0330183 0.
0.517831 0.0349229 0.
0.521381 0.0366346 0.
0.52475 0.0380582 0.
0.528125 0.0392944 0.
0.531157 0.0403273 0.
0.533997 0.0412452 0.
0.53669 0.0420366 0.
0.539338 0.0426342 0.
0.541821 0.0430356 0.
0.544296 0.0434368 0.
0.546599 0.0437061 0.
0.54891 0.0439821 0.
0.551134 0.0442041 0.
0.553308 0.0444058 0.
0.555482 0.0446051 0.
0.557561 0.0446557 0.
0.559641 0.0447056 0.
0.561711 0.0447548 0.
0.563764 0.0448044 0.
0.565818 0.0448542 0.
0.567855 0.0448885 0.
0.569883 0.0449129 0.
0.571911 0.0449373 0.
0.573926 0.0449496 0.
0.575938 0.0449599 0.
0.57795 0.0449697 0.
0.579958 0.0449746 0.
0.581967 0.0449795 0.
0.583974 0.0449837 0.
0.585978 0.0449865 0.
0.587983 0.0449893 0.
0.589987 0.0449915 0.
0.59199 0.0449931 0.
0.593993 0.0449947 0.
0.595996 0.0449953 0.
0.597998 0.0449956 0.
0.600001 0.0449959 0.
0.602004 0.044995 0.
0.604007 0.0449941 0.
0.60601 0.044993 0.
0.608013 0.0449913 0.
0.610017 0.0449896 0.
0.612021 0.0449871 0.
0.614027 0.0449835 0.
0.616033 0.0449798 0.
0.618042 0.0449746 0.
0.620052 0.0449685 0.
0.622062 0.0449625 0.
0.624077 0.044949 0.
0.626093 0.0449348 0.
0.628112 0.0449179 0.
0.630147 0.0448857 0.
0.632182 0.0448536 0.
0.63423 0.0448106 0.
0.636296 0.0447513 0.
0.638361 0.0446922 0.
0.640454 0.0446238 0.
0.642558 0.0445516 0.
0.644664 0.0444753 0.
0.646877 0.0442228 0.
0.649088 0.0439705 0.
0.651392 0.0436871 0.
0.653789 0.0433608 0.
0.656184 0.0430357 0.
0.658749 0.042504 0.
0.66131 0.041976 0.
0.664122 0.0412148 0.
0.6669 0.0403835 0.
0.670044 0.0392925 0.
0.67324 0.0380851 0.
0.67661 0.0365474 0.
0.680026 0.034908 0.
0.683741 0.0329493 0.
0.687849 0.0308377 0.
0.691942 0.0287283 0.
0.696395 0.0261882 0.
0.700809 0.023634 0.
0.70594 0.0209739 0.
0.711144 0.0182746 0.
0.716964 0.0152168 0.
0.723063 0.0124403 0.
0.730119 0.00964607 0.
0.738684 0.00745518 0.
0.748799 0.00527884 0.
0.758914 0.00388246 0.
0.773936 0.00637589 0.
0.424624 0.00647907 0.
0.436929 0.00442839 0.
0.44755 0.00543762 0.
0.457682 0.00719607 0.
0.466211 0.0097718 0.
0.473577 0.0125145 0.
0.479576 0.0153387 0.
0.485577 0.0182222 0.
0.490552 0.0209289 0.
0.495557 0.0237549 0.
0.500003 0.0263107 0.
0.50475 0.0289806 0.
0.508912 0.031231 0.
0.513017 0.0335177 0.
0.516744 0.0355542 0.
0.520348 0.037425 0.
0.523856 0.0390181 0.
0.527313 0.0403358 0.
0.530355 0.0414558 0.
0.533364 0.0425888 0.
0.536148 0.0434785 0.
0.538944 0.0442261 0.
0.541487 0.0446931 0.
0.544017 0.0451525 0.
0.546356 0.0454515 0.
0.548696 0.0457619 0.
0.550957 0.0460256 0.
0.553149 0.0462551 0.
0.555344 0.046483 0.
0.557451 0.0465558 0.
0.559558 0.0466261 0.
0.561651 0.046693 0.
0.563713 0.0467508 0.
0.565775 0.0468089 0.
0.56782 0.046851 0.
0.569855 0.0468826 0.
0.571891 0.0469143 0.
0.57391 0.046931 0.
0.575926 0.0469452 0.
0.577941 0.0469587 0.
0.579951 0.0469652 0.
0.581961 0.0469717 0.
0.583969 0.0469774 0.
0.585975 0.0469813 0.
0.587981 0.0469852 0.
0.589986 0.0469881 0.
0.591989 0.0469903 0.
0.593993 0.0469924 0.
0.595996 0.0469933 0.
0.597998 0.0469938 0.
0.600001 0.0469944 0.
0.602004 0.0469931 0.
0.604007 0.0469918 0.
0.606011 0.0469903 0.
0.608015 0.0469879 0.
0.610019 0.0469855 0.
0.612024 0.0469819 0.
0.614032 0.0469768 0.
0.616039 0.0469718 0.
0.61805 0.0469648 0.
0.620062 0.0469568 0.
0.622074 0.0469488 0.
0.624094 0.0469309 0.
0.626114 0.0469121 0.
0.628137 0.0468898 0.
0.630183 0.0468479 0.
0.632228 0.0468063 0.
0.634286 0.0467539 0.
0.636361 0.0466857 0.
0.638436 0.0466178 0.
0.64056 0.0465249 0.
0.642698 0.0464251 0.
0.64484 0.0463187 0.
0.64707 0.0460402 0.
0.649293 0.045761 0.
0.651642 0.0454185 0.
0.654088 0.045041 0.
0.65656 0.0446605 0.
0.659185 0.0440714 0.
0.661842 0.0434502 0.
0.664782 0.0425247 0.
0.667722 0.0415359 0.
0.670903 0.0403402 0.
0.674185 0.0390312 0.
0.677622 0.0373439 0.
0.681202 0.0354386 0.
0.684896 0.0334651 0.
0.689139 0.0312124 0.
0.693315 0.028936 0.
0.697794 0.0263545 0.
0.702212 0.023757 0.
0.707388 0.0210836 0.
0.712545 0.0183336 0.
0.718409 0.0152419 0.
0.724587 0.0125004 0.
0.731679 0.00972252 0.
0.740249 0.00763058 0.
0.750057 0.00556059 0.
0.759799 0.00437743 0.
0.773535 0.00711817 0.
0.425021 0.00723386 0.
0.436223 0.00491807 0.
0.44656 0.00579831 0.
0.456397 0.00736166 0.
0.464846 0.00988803 0.
0.472216 0.0126477 0.
0.478218 0.0154131 0.
0.484237 0.0183557 0.
0.48924 0.0210613 0.
0.494253 0.0239404 0.
0.498738 0.0265304 0.
0.503454 0.0292264 0.
0.507686 0.0315755 0.
0.511913 0.0339764 0.
0.515643 0.0361329 0.
0.519293 0.038135 0.
0.522889 0.0398832 0.
0.52633 0.0412675 0.
0.529537 0.042531 0.
0.532691 0.0438575 0.
0.535573 0.0448545 0.
0.538404 0.0456736 0.
0.540997 0.0462001 0.
0.543611 0.0467533 0.
0.546032 0.0471299 0.
0.548424 0.0475025 0.
0.550742 0.0478263 0.
0.552963 0.0480866 0.
0.555189 0.0483462 0.
0.55733 0.0484467 0.
0.559468 0.0485415 0.
0.561589 0.0486294 0.
0.56366 0.0486958 0.
0.56573 0.0487624 0.
0.567785 0.0488127 0.
0.569827 0.0488518 0.
0.57187 0.0488911 0.
0.573893 0.0489123 0.
0.575913 0.0489304 0.
0.577932 0.0489476 0.
0.579943 0.0489558 0.
0.581955 0.0489639 0.
0.583965 0.0489711 0.
0.585972 0.048976 0.
0.587979 0.048981 0.
0.589984 0.0489848 0.
0.591988 0.0489875 0.
0.593992 0.0489901 0.
0.595995 0.0489913 0.
0.597998 0.0489921 0.
0.600001 0.0489929 0.
0.602004 0.0489912 0.
0.604008 0.0489896 0.
0.606011 0.0489876 0.
0.608016 0.0489844 0.
0.610021 0.0489813 0.
0.612027 0.0489766 0.
0.614036 0.0489702 0.
0.616045 0.0489637 0.
0.618058 0.0489549 0.
0.620072 0.048945 0.
0.622087 0.0489351 0.
0.62411 0.0489127 0.
0.626134 0.0488892 0.
0.628164 0.0488612 0.
0.63022 0.0488092 0.
0.632275 0.0487576 0.
0.634344 0.0486953 0.
0.63643 0.0486176 0.
0.638516 0.0485402 0.
0.640677 0.0484176 0.
0.642858 0.0482847 0.
0.645044 0.0481423 0.
0.647305 0.0478348 0.
0.649558 0.0475272 0.
0.651961 0.0470935 0.
0.654438 0.0466253 0.
0.657 0.046156 0.
0.659693 0.045535 0.
0.662427 0.0448397 0.
0.665464 0.0437873 0.
0.668592 0.0426213 0.
0.671856 0.0412867 0.
0.675207 0.0398223 0.
0.678667 0.0380638 0.
0.682393 0.0359369 0.
0.686157 0.0338543 0.
0.690407 0.0315299 0.
0.694611 0.0291595 0.
0.699148 0.0265195 0.
0.703563 0.0239175 0.
0.708739 0.0212117 0.
0.713873 0.0184261 0.
0.719733 0.0153263 0.
0.725945 0.0126103 0.
0.733076 0.00987432 0.
0.741581 0.00783544 0.
0.751098 0.00590061 0.
0.760363 0.00489305 0.
0.773003 0.0078186 0.
0.425443 0.00797264 0.
0.435878 0.0054479 0.
0.445798 0.00620321 0.
0.45527 0.0075875 0.
0.463635 0.0100543 0.
0.470954 0.0128176 0.
0.47694 0.0155304 0.
0.48299 0.0185295 0.
0.488006 0.021227 0.
0.492968 0.0241302 0.
0.497477 0.0267584 0.
0.502155 0.029445 0.
0.506483 0.0319043 0.
0.510796 0.034402 0.
0.514511 0.0366408 0.
0.518223 0.038774 0.
0.521836 0.0406289 0.
0.525318 0.0421416 0.
0.528698 0.0435499 0.
0.531903 0.0449658 0.
0.534803 0.0460401 0.
0.537722 0.0470001 0.
0.540462 0.0476703 0.
0.54318 0.0483319 0.
0.545703 0.0487978 0.
0.548148 0.0492323 0.
0.55053 0.0496225 0.
0.55278 0.0499114 0.
0.555033 0.050195 0.
0.557207 0.050324 0.
0.559373 0.0504463 0.
0.561519 0.0505596 0.
0.563599 0.0506339 0.
0.565679 0.0507086 0.
0.567743 0.0507674 0.
0.569794 0.0508152 0.
0.571846 0.0508634 0.
0.573873 0.05089 0.
0.575897 0.0509127 0.
0.577919 0.0509344 0.
0.579933 0.0509443 0.
0.581947 0.0509543 0.
0.583959 0.0509631 0.
0.585967 0.0509694 0.
0.587976 0.0509758 0.
0.589982 0.0509805 0.
0.591987 0.0509839 0.
0.593991 0.0509873 0.
0.595995 0.0509888 0.
0.597998 0.0509897 0.
0.600001 0.0509907 0.
0.602005 0.0509887 0.
0.604009 0.0509867 0.
0.606013 0.0509842 0.
0.608018 0.0509801 0.
0.610024 0.050976 0.
0.612032 0.05097 0.
0.614042 0.0509618 0.
0.616053 0.0509536 0.
0.618068 0.0509428 0.
0.620086 0.0509308 0.
0.622103 0.0509188 0.
0.624131 0.050891 0.
0.62616 0.050862 0.
0.628196 0.0508271 0.
0.630262 0.0507635 0.
0.632328 0.0507004 0.
0.634408 0.0506282 0.
0.636505 0.0505421 0.
0.638601 0.0504565 0.
0.640798 0.050299 0.
0.643017 0.0501313 0.
0.645245 0.0499567 0.
0.647538 0.049625 0.
0.649823 0.0492904 0.
0.652282 0.0487517 0.
0.654789 0.0481932 0.
0.65748 0.0476259 0.
0.660301 0.0469261 0.
0.663216 0.0460331 0.
0.666207 0.0449416 0.
0.669488 0.0436413 0.
0.672844 0.0421812 0.
0.676324 0.0404881 0.
0.679805 0.038633 0.
0.683572 0.0364048 0.
0.687435 0.034189 0.
0.691694 0.0318021 0.
0.695896 0.0293889 0.
0.700415 0.0267208 0.
0.704865 0.024103 0.
0.710015 0.0213567 0.
0.715131 0.0185363 0.
0.720976 0.0154631 0.
0.727165 0.0127729 0.
0.734322 0.0100772 0.
0.742735 0.00808492 0.
0.751923 0.00629655 0.
0.760895 0.00543067 0.
0.77244 0.00848 0.
0.425956 0.00868344 0.
0.435692 0.00600656 0.
0.445166 0.0066481 0.
0.454292 0.00788528 0.
0.462521 0.0102571 0.
0.469739 0.0130057 0.
0.475727 0.0156931 0.
0.481793 0.0187051 0.
0.486814 0.0214252 0.
0.49174 0.0243172 0.
0.496243 0.0269899 0.
0.500896 0.0296674 0.
0.505278 0.0322166 0.
0.509589 0.0347491 0.
0.513362 0.037094 0.
0.517127 0.0393371 0.
0.520736 0.0412927 0.
0.524289 0.0429615 0.
0.527809 0.0444766 0.
0.530959 0.0458948 0.
0.534018 0.0471921 0.
0.537028 0.0482852 0.
0.539923 0.049111 0.
0.542731 0.0498581 0.
0.545341 0.0504024 0.
0.547815 0.050883 0.
0.550254 0.0513399 0.
0.552554 0.0516599 0.
0.554876 0.0519853 0.
0.557083 0.0521599 0.
0.559264 0.0523257 0.
0.561428 0.0524782 0.
0.563522 0.0525608 0.
0.565617 0.0526438 0.
0.567694 0.0527126 0.
0.569755 0.0527712 0.
0.571816 0.0528302 0.
0.573849 0.0528635 0.
0.575877 0.0528918 0.
0.577904 0.0529188 0.
0.57992 0.0529307 0.
0.581937 0.0529427 0.
0.583951 0.0529534 0.
0.585961 0.0529614 0.
0.587971 0.0529694 0.
0.589979 0.0529754 0.
0.591984 0.0529797 0.
0.59399 0.052984 0.
0.595994 0.0529858 0.
0.597998 0.0529868 0.
0.600001 0.0529878 0.
0.602006 0.0529855 0.
0.60401 0.0529832 0.
0.606015 0.0529802 0.
0.608022 0.0529749 0.
0.610028 0.0529696 0.
0.612038 0.052962 0.
0.614051 0.0529516 0.
0.616063 0.0529412 0.
0.618081 0.0529282 0.
0.620102 0.052914 0.
0.622122 0.0528998 0.
0.624156 0.0528655 0.
0.626192 0.0528297 0.
0.628235 0.0527862 0.
0.630314 0.0527079 0.
0.632391 0.0526304 0.
0.634485 0.0525467 0.
0.636597 0.0524527 0.
0.638707 0.052359 0.
0.640933 0.0521454 0.
0.643176 0.0519193 0.
0.645446 0.0516901 0.
0.647797 0.0513318 0.
0.650125 0.0509772 0.
0.652636 0.0503511 0.
0.65513 0.0497301 0.
0.657975 0.0490723 0.
0.660924 0.0483016 0.
0.664031 0.0471681 0.
0.667113 0.0459258 0.
0.670435 0.0445551 0.
0.67388 0.0429864 0.
0.67744 0.0411238 0.
0.680997 0.0390888 0.
0.684776 0.0368182 0.
0.688672 0.034518 0.
0.692957 0.0320692 0.
0.697182 0.029616 0.
0.701645 0.0269387 0.
0.706115 0.0243091 0.
0.711236 0.0215226 0.
0.716309 0.0186863 0.
0.722161 0.0156405 0.
0.728286 0.0129728 0.
0.73544 0.0103302 0.
0.74376 0.00837905 0.
0.752572 0.00673422 0.
0.761246 0.00599171 0.
0.771882 0.00914702 0.
0.426635 0.00930704 0.
0.435758 0.00657443 0.
0.444754 0.00714766 0.
0.453562 0.00827093 0.
0.461594 0.0105314 0.
0.468675 0.0132577 0.
0.474672 0.0159273 0.
0.480686 0.01892 0.
0.485688 0.0216669 0.
0.490591 0.0245389 0.
0.495094 0.027251 0.
0.499708 0.0299175 0.
0.504087 0.0325108 0.
0.508357 0.0350522 0.
0.512201 0.0375028 0.
0.516019 0.0398471 0.
0.519618 0.0418941 0.
0.523251 0.04371 0.
0.526778 0.0452682 0.
0.529984 0.0467768 0.
0.533207 0.0483042 0.
0.536286 0.049486 0.
0.539267 0.0504244 0.
0.54211 0.0512485 0.
0.544881 0.0519359 0.
0.547421 0.0524897 0.
0.549947 0.0530412 0.
0.552316 0.0534035 0.
0.554711 0.0537724 0.
0.556958 0.0539927 0.
0.559155 0.0542022 0.
0.561336 0.0543965 0.
0.563445 0.0544875 0.
0.565555 0.0545789 0.
0.567644 0.0546575 0.
0.569715 0.054727 0.
0.571786 0.0547969 0.
0.573825 0.054837 0.
0.575857 0.0548708 0.
0.577888 0.0549032 0.
0.579907 0.0549171 0.
0.581927 0.054931 0.
0.583943 0.0549436 0.
0.585955 0.0549533 0.
0.587967 0.0549631 0.
0.589976 0.0549703 0.
0.591982 0.0549755 0.
0.593988 0.0549806 0.
0.595993 0.0549827 0.
0.597997 0.0549838 0.
0.600001 0.0549849 0.
0.602007 0.0549823 0.
0.604012 0.0549797 0.
0.606017 0.0549762 0.
0.608025 0.0549697 0.
0.610033 0.0549632 0.
0.612044 0.0549539 0.
0.614059 0.0549414 0.
0.616074 0.0549288 0.
0.618095 0.0549136 0.
0.620118 0.0548971 0.
0.622141 0.0548807 0.
0.624182 0.0548398 0.
0.626223 0.0547973 0.
0.628275 0.0547449 0.
0.630365 0.054652 0.
0.632455 0.0545599 0.
0.634563 0.0544651 0.
0.636689 0.054363 0.
0.638814 0.0542613 0.
0.641069 0.0539874 0.
0.643336 0.0537025 0.
0.645656 0.0534196 0.
0.648076 0.0530231 0.
0.650494 0.0526107 0.
0.653137 0.0518703 0.
0.655723 0.0511653 0.
0.658639 0.0504019 0.
0.661607 0.0496002 0.
0.664876 0.0482361 0.
0.668094 0.0468554 0.
0.671469 0.045353 0.
0.674953 0.0436925 0.
0.678545 0.0417188 0.
0.682171 0.0395131 0.
0.685991 0.0371861 0.
0.689893 0.0348348 0.
0.694156 0.0323611 0.
0.698398 0.0298676 0.
0.702814 0.0271847 0.
0.707314 0.0245283 0.
0.712376 0.021737 0.
0.717382 0.0188971 0.
0.72323 0.0158768 0.
0.729272 0.013235 0.
0.736367 0.0106495 0.
0.744538 0.00874043 0.
0.753051 0.00723068 0.
0.761388 0.00656684 0.
0.77123 0.00977393 0.
0.427461 0.00986733 0.
0.436042 0.00715027 0.
0.444596 0.00770173 0.
0.45309 0.00872284 0.
0.460879 0.0108854 0.
0.467776 0.0135792 0.
0.473799 0.0162388 0.
0.479691 0.0191949 0.
0.484657 0.0219581 0.
0.489535 0.0248095 0.
0.494044 0.0275536 0.
0.498586 0.0302068 0.
0.502924 0.032804 0.
0.507165 0.0353612 0.
0.511073 0.0378992 0.
0.514849 0.0402865 0.
0.518493 0.0424477 0.
0.522194 0.0443998 0.
0.525667 0.0460104 0.
0.528996 0.0476034 0.
0.532331 0.0492808 0.
0.535413 0.0505244 0.
0.538506 0.0516532 0.
0.541447 0.0526018 0.
0.544404 0.0534543 0.
0.547006 0.0540805 0.
0.549605 0.0547239 0.
0.552038 0.0551155 0.
0.55447 0.0555203 0.
0.556757 0.0557922 0.
0.558972 0.0560411 0.
0.561182 0.0562768 0.
0.563316 0.0563792 0.
0.565453 0.0564829 0.
0.567565 0.0565754 0.
0.569649 0.056659 0.
0.571733 0.0567436 0.
0.573782 0.0567944 0.
0.575823 0.0568374 0.
0.577863 0.0568789 0.
0.579886 0.0568953 0.
0.581909 0.0569117 0.
0.583929 0.0569268 0.
0.585944 0.0569394 0.
0.587958 0.056952 0.
0.589969 0.0569614 0.
0.591977 0.056968 0.
0.593985 0.0569746 0.
0.595991 0.0569773 0.
0.597996 0.0569789 0.
0.600002 0.0569804 0.
0.602008 0.0569768 0.
0.604014 0.0569733 0.
0.606021 0.0569686 0.
0.608031 0.0569602 0.
0.610041 0.0569517 0.
0.612055 0.0569399 0.
0.614074 0.0569239 0.
0.616092 0.056908 0.
0.618117 0.0568901 0.
0.620144 0.0568713 0.
0.62217 0.0568525 0.
0.624225 0.0567979 0.
0.626279 0.0567418 0.
0.628345 0.056675 0.
0.63045 0.0565673 0.
0.632554 0.0564606 0.
0.634689 0.0563488 0.
0.636846 0.0562303 0.
0.639 0.0561126 0.
0.641282 0.0557848 0.
0.643561 0.0554528 0.
0.645921 0.0551209 0.
0.648379 0.0547 0.
0.650905 0.0542176 0.
0.653674 0.0533685 0.
0.656418 0.0525454 0.
0.65944 0.0515933 0.
0.662492 0.0505901 0.
0.665753 0.0492063 0.
0.6691 0.047723 0.
0.672512 0.0461081 0.
0.676057 0.0443056 0.
0.679657 0.0422439 0.
0.683317 0.0399318 0.
0.687135 0.0375612 0.
0.69109 0.0351499 0.
0.695283 0.0326921 0.
0.699532 0.0301578 0.
0.703897 0.0274744 0.
0.708408 0.0247943 0.
0.713429 0.0219978 0.
0.718362 0.0191645 0.
0.724152 0.016183 0.
0.730114 0.0135686 0.
0.737096 0.0110392 0.
0.745044 0.00917452 0.
0.753319 0.00779544 0.
0.761297 0.00713458 0.
0.770397 0.0103046 0.
0.428432 0.010325 0.
0.4365 0.0077465 0.
0.444621 0.00830484 0.
0.4528 0.00922604 0.
0.460342 0.0113152 0.
0.46704 0.0139686 0.
0.473049 0.0166159 0.
0.478798 0.0195285 0.
0.483721 0.0223036 0.
0.48857 0.0251324 0.
0.493061 0.0278901 0.
0.49753 0.0305363 0.
0.501833 0.0331246 0.
0.506049 0.0357018 0.
0.509955 0.0382791 0.
0.513695 0.0407051 0.
0.517391 0.0429697 0.
0.521064 0.0450028 0.
0.524542 0.0467114 0.
0.527989 0.0483728 0.
0.531318 0.0500721 0.
0.534483 0.0514937 0.
0.537675 0.0527989 0.
0.540745 0.0538965 0.
0.543835 0.054887 0.
0.54649 0.055549 0.
0.549165 0.0562228 0.
0.551666 0.056716 0.
0.554134 0.0572158 0.
0.556484 0.0575679 0.
0.558742 0.0578585 0.
0.561 0.058141 0.
0.563169 0.0582598 0.
0.56534 0.0583794 0.
0.567481 0.0584885 0.
0.569579 0.0585878 0.
0.571678 0.0586882 0.
0.573738 0.0587506 0.
0.575789 0.0588033 0.
0.577839 0.0588543 0.
0.579864 0.0588732 0.
0.58189 0.0588921 0.
0.583914 0.0589098 0.
0.585932 0.0589254 0.
0.58795 0.0589409 0.
0.589963 0.0589524 0.
0.591973 0.0589605 0.
0.593982 0.0589685 0.
0.595989 0.0589719 0.
0.597996 0.0589739 0.
0.600002 0.0589759 0.
0.602009 0.0589713 0.
0.604017 0.0589668 0.
0.606025 0.0589609 0.
0.608038 0.0589506 0.
0.61005 0.0589402 0.
0.612067 0.0589257 0.
0.614089 0.0589063 0.
0.616111 0.058887 0.
0.618139 0.0588664 0.
0.62017 0.0588452 0.
0.6222 0.0588239 0.
0.624269 0.0587546 0.
0.626338 0.0586838 0.
0.62842 0.0586013 0.
0.630542 0.0584776 0.
0.632663 0.058355 0.
0.634833 0.058221 0.
0.637034 0.0580784 0.
0.639239 0.0579275 0.
0.641566 0.0575439 0.
0.643886 0.0571607 0.
0.646348 0.0567376 0.
0.648877 0.0562303 0.
0.651492 0.0556402 0.
0.654272 0.0547875 0.
0.65716 0.0538465 0.
0.660257 0.0527241 0.
0.663433 0.0514982 0.
0.666718 0.0500375 0.
0.67012 0.0485265 0.
0.673572 0.0468085 0.
0.677171 0.0448658 0.
0.680762 0.042721 0.
0.684433 0.0403485 0.
0.688245 0.0379459 0.
0.692213 0.0354971 0.
0.696352 0.0330589 0.
0.700566 0.0305009 0.
0.704898 0.027816 0.
0.709403 0.0251148 0.
0.71438 0.0223114 0.
0.719255 0.0194891 0.
0.724934 0.0165512 0.
0.730841 0.0139653 0.
0.737649 0.0114883 0.
0.745334 0.00966778 0.
0.753354 0.00842664 0.
0.761003 0.0076996 0.
0.769448 0.010732 0.
0.42949 0.010676 0.
0.437058 0.00837036 0.
0.444764 0.00895131 0.
0.452661 0.00976888 0.
0.459906 0.0117988 0.
0.46643 0.0144109 0.
0.47237 0.017039 0.
0.477983 0.0199106 0.
0.482866 0.022693 0.
0.48765 0.0254869 0.
0.492135 0.0282594 0.
0.496545 0.030902 0.
0.500808 0.0334752 0.
0.504968 0.0360581 0.
0.508844 0.0386374 0.
0.512584 0.0411195 0.
0.516282 0.0434638 0.
0.51989 0.0455414 0.
0.52341 0.0473692 0.
0.52692 0.0490656 0.
0.53024 0.0507931 0.
0.533521 0.0524058 0.
0.536785 0.053846 0.
0.539928 0.055062 0.
0.543015 0.0561193 0.
0.545874 0.0569319 0.
0.548683 0.0576877 0.
0.551289 0.058299 0.
0.553795 0.0588936 0.
0.556209 0.0593388 0.
0.55851 0.0596708 0.
0.560814 0.0599956 0.
0.563018 0.0601305 0.
0.565222 0.0602664 0.
0.567391 0.0603942 0.
0.569502 0.0605081 0.
0.571613 0.0606229 0.
0.573686 0.0606985 0.
0.575748 0.0607634 0.
0.57781 0.0608268 0.
0.579839 0.0608481 0.
0.581869 0.0608693 0.
0.583896 0.0608897 0.
0.585917 0.0609085 0.
0.587938 0.0609272 0.
0.589954 0.0609412 0.
0.591966 0.060951 0.
0.593978 0.0609609 0.
0.595987 0.060965 0.
0.597994 0.0609673 0.
0.600002 0.0609697 0.
0.602011 0.0609641 0.
0.604021 0.0609585 0.
0.606031 0.0609512 0.
0.608046 0.0609385 0.
0.610062 0.0609258 0.
0.612082 0.0609085 0.
0.614107 0.0608857 0.
0.616133 0.0608629 0.
0.618166 0.0608388 0.
0.620201 0.0608139 0.
0.622236 0.0607891 0.
0.624321 0.0607026 0.
0.626406 0.0606153 0.
0.628503 0.0605165 0.
0.63064 0.0603788 0.
0.632775 0.0602423 0.
0.634982 0.0600839 0.
0.637223 0.0599198 0.
0.639482 0.059734 0.
0.641853 0.0592966 0.
0.644214 0.0588624 0.
0.646797 0.0583326 0.
0.649418 0.057727 0.
0.652194 0.0569577 0.
0.655048 0.0560001 0.
0.657992 0.0549676 0.
0.661101 0.0537787 0.
0.664396 0.052374 0.
0.66773 0.0508485 0.
0.671172 0.0492484 0.
0.674655 0.0474358 0.
0.678273 0.0453937 0.
0.681876 0.0431515 0.
0.685537 0.0407494 0.
0.689319 0.0383438 0.
0.693278 0.0358749 0.
0.697381 0.0334431 0.
0.701539 0.0308769 0.
0.705842 0.0281907 0.
0.710304 0.0254859 0.
0.715238 0.0226788 0.
0.720083 0.0198559 0.
0.725627 0.0169652 0.
0.731475 0.0144101 0.
0.738087 0.0119825 0.
0.745486 0.0101995 0.
0.753228 0.00909965 0.
0.760609 0.00829535 0.
0.768423 0.0110649 0.
0.430572 0.0109901 0.
0.437666 0.00902433 0.
0.445013 0.00961756 0.
0.452612 0.0103433 0.
0.45958 0.0123401 0.
0.465931 0.0149047 0.
0.471777 0.0175063 0.
0.477245 0.0203416 0.
0.482074 0.0231155 0.
0.486791 0.025887 0.
0.491253 0.0286612 0.
0.495598 0.0312957 0.
0.499825 0.033851 0.
0.503912 0.0364195 0.
0.507759 0.0389968 0.
0.511495 0.0415305 0.
0.51515 0.0439191 0.
0.518738 0.0460623 0.
0.522272 0.0479782 0.
0.525789 0.0497206 0.
0.529155 0.051491 0.
0.532522 0.0532419 0.
0.535799 0.0547482 0.
0.539002 0.0560841 0.
0.54216 0.0572932 0.
0.54523 0.0582959 0.
0.548171 0.0591251 0.
0.550899 0.0598417 0.
0.55339 0.0604891 0.
0.555884 0.0610226 0.
0.558235 0.0613877 0.
0.560604 0.0617533 0.
0.562849 0.061936 0.
0.565086 0.0621171 0.
0.567284 0.0622829 0.
0.569408 0.0624113 0.
0.571532 0.0625408 0.
0.573621 0.0626333 0.
0.575699 0.0627152 0.
0.577777 0.0627958 0.
0.57981 0.0628193 0.
0.581843 0.0628429 0.
0.583874 0.062866 0.
0.585898 0.0628884 0.
0.587923 0.0629108 0.
0.589942 0.0629276 0.
0.591957 0.0629395 0.
0.593972 0.0629515 0.
0.595983 0.0629563 0.
0.597993 0.0629591 0.
0.600003 0.0629618 0.
0.602015 0.0629549 0.
0.604026 0.0629481 0.
0.60604 0.0629392 0.
0.608058 0.0629238 0.
0.610077 0.0629084 0.
0.6121 0.0628878 0.
0.61413 0.0628615 0.
0.616159 0.0628353 0.
0.618198 0.0628062 0.
0.62024 0.0627759 0.
0.622283 0.0627451 0.
0.624386 0.0626369 0.
0.626489 0.0625282 0.
0.628606 0.0624092 0.
0.630758 0.0622569 0.
0.632908 0.062106 0.
0.635172 0.0618875 0.
0.63747 0.0616549 0.
0.639795 0.0614034 0.
0.642223 0.0609454 0.
0.644616 0.0604921 0.
0.647274 0.0598799 0.
0.649974 0.0591945 0.
0.652919 0.0582389 0.
0.655857 0.0571735 0.
0.658935 0.055962 0.
0.662021 0.054702 0.
0.665388 0.0532078 0.
0.668777 0.0516333 0.
0.67225 0.0499251 0.
0.67575 0.0480052 0.
0.679367 0.0458837 0.
0.682962 0.0435749 0.
0.686643 0.0411429 0.
0.690395 0.0387347 0.
0.69432 0.0362726 0.
0.698383 0.0338415 0.
0.702472 0.0312793 0.
0.706743 0.0285928 0.
0.711151 0.0258944 0.
0.716 0.0231017 0.
0.720828 0.0202786 0.
0.726244 0.0174286 0.
0.732009 0.0149018 0.
0.73844 0.012519 0.
0.745544 0.0107644 0.
0.753022 0.00980173 0.
0.760168 0.00894681 0.
0.767352 0.0113343 0.
0.431675 0.0113073 0.
0.438357 0.00972878 0.
0.44542 0.0102865 0.
0.45272 0.0109659 0.
0.459422 0.0129576 0.
0.465563 0.0154667 0.
0.471325 0.0180434 0.
0.476608 0.0208436 0.
0.481353 0.023589 0.
0.486028 0.0263471 0.
0.490439 0.0291123 0.
0.494713 0.0317354 0.
0.498884 0.0342673 0.
0.502907 0.03681 0.
0.506725 0.0393809 0.
0.510427 0.0419426 0.
0.514046 0.0443587 0.
0.5176 0.0465662 0.
0.521129 0.0485556 0.
0.524655 0.0503631 0.
0.52808 0.0521607 0.
0.531457 0.0539542 0.
0.534754 0.0555516 0.
0.538031 0.0570384 0.
0.541263 0.0583869 0.
0.544505 0.0595847 0.
0.547432 0.0604279 0.
0.550246 0.0612705 0.
0.552855 0.0620075 0.
0.555525 0.0626746 0.
0.557943 0.063089 0.
0.560384 0.0635064 0.
0.562677 0.0637365 0.
0.564946 0.0639636 0.
0.567177 0.0641711 0.
0.569313 0.064314 0.
0.571451 0.0644581 0.
0.573556 0.0645675 0.
0.57565 0.0646665 0.
0.577744 0.0647644 0.
0.579781 0.0647906 0.
0.581818 0.0648165 0.
0.583852 0.0648422 0.
0.58588 0.0648682 0.
0.587907 0.0648942 0.
0.58993 0.0649139 0.
0.591948 0.064928 0.
0.593966 0.0649421 0.
0.595979 0.0649477 0.
0.597991 0.0649508 0.
0.600003 0.0649539 0.
0.602018 0.0649458 0.
0.604032 0.0649377 0.
0.606048 0.0649272 0.
0.60807 0.064909 0.
0.610092 0.0648909 0.
0.612119 0.0648672 0.
0.614152 0.0648374 0.
0.616185 0.0648076 0.
0.61823 0.0647735 0.
0.620279 0.0647378 0.
0.622329 0.0647006 0.
0.624452 0.0645705 0.
0.626574 0.0644402 0.
0.628709 0.0643012 0.
0.630877 0.0641343 0.
0.633043 0.0639688 0.
0.635369 0.0636832 0.
0.637727 0.06338 0.
0.64014 0.0630553 0.
0.642664 0.0625491 0.
0.645186 0.0620164 0.
0.647961 0.0612486 0.
0.65071 0.0604788 0.
0.653708 0.0594437 0.
0.656734 0.058257 0.
0.659905 0.0569136 0.
0.663084 0.0555247 0.
0.666413 0.0539996 0.
0.669852 0.0523626 0.
0.673323 0.0505627 0.
0.676832 0.0485427 0.
0.680447 0.0463475 0.
0.684018 0.0440067 0.
0.687698 0.0415603 0.
0.691443 0.0391382 0.
0.695327 0.0366987 0.
0.699326 0.0342761 0.
0.703347 0.0317228 0.
0.707566 0.029048 0.
0.711923 0.0263535 0.
0.716662 0.0235886 0.
0.721444 0.0207802 0.
0.726736 0.0179657 0.
0.73238 0.015469 0.
0.738627 0.0131171 0.
0.74546 0.0113743 0.
0.752668 0.0105185 0.
0.759576 0.00965797 0.
0.766242 0.0115601 0.
0.432772 0.011668 0.
0.439133 0.0104755 0.
0.445964 0.0109735 0.
0.45297 0.0116422 0.
0.459389 0.0136431 0.
0.465334 0.0161023 0.
0.470977 0.0186524 0.
0.476071 0.0214177 0.
0.480748 0.0241366 0.
0.485366 0.0268767 0.
0.489704 0.0296196 0.
0.493901 0.0322299 0.
0.498003 0.0347406 0.
0.501957 0.0372461 0.
0.505749 0.0398068 0.
0.509408 0.0423721 0.
0.512979 0.0448072 0.
0.516511 0.0470766 0.
0.52003 0.0491232 0.
0.523544 0.0509905 0.
0.526993 0.0527942 0.
0.530368 0.0546214 0.
0.533696 0.0563265 0.
0.537013 0.0578946 0.
0.540309 0.0593414 0.
0.543545 0.0606053 0.
0.546539 0.0615999 0.
0.549515 0.0626518 0.
0.552267 0.0634977 0.
0.555111 0.0643013 0.
0.557618 0.0647678 0.
0.560088 0.0652108 0.
0.56243 0.0654915 0.
0.564735 0.06577 0.
0.567013 0.0660311 0.
0.569167 0.0661827 0.
0.571324 0.0663354 0.
0.57345 0.0664626 0.
0.575561 0.0665833 0.
0.577673 0.0667042 0.
0.579724 0.0667404 0.
0.581774 0.0667754 0.
0.583819 0.0668089 0.
0.585851 0.0668381 0.
0.587883 0.0668674 0.
0.58991 0.0668901 0.
0.591932 0.066907 0.
0.593955 0.0669238 0.
0.595972 0.0669306 0.
0.597989 0.0669343 0.
0.600005 0.066938 0.
0.602024 0.0669279 0.
0.604042 0.0669178 0.
0.606063 0.066905 0.
0.60809 0.0668835 0.
0.610117 0.0668621 0.
0.61215 0.0668349 0.
0.614189 0.0668014 0.
0.616227 0.0667679 0.
0.618287 0.0667224 0.
0.620353 0.0666733 0.
0.622422 0.0666205 0.
0.624565 0.0664646 0.
0.626706 0.06631 0.
0.628865 0.0661528 0.
0.631055 0.065978 0.
0.633238 0.0658046 0.
0.635626 0.0654404 0.
0.63803 0.0650719 0.
0.640529 0.0646815 0.
0.643137 0.0641369 0.
0.645811 0.0634964 0.
0.648693 0.0625693 0.
0.651587 0.061624 0.
0.654633 0.060489 0.
0.657698 0.0592331 0.
0.660911 0.0578124 0.
0.664176 0.0563149 0.
0.667485 0.054741 0.
0.670935 0.0530386 0.
0.674412 0.0511487 0.
0.677898 0.0490697 0.
0.681487 0.046817 0.
0.685052 0.0444484 0.
0.688702 0.0420125 0.
0.692434 0.0395819 0.
0.696268 0.0371744 0.
0.700205 0.0347591 0.
0.704161 0.0322172 0.
0.708301 0.0295669 0.
0.712599 0.026878 0.
0.717226 0.024145 0.
0.721931 0.0213652 0.
0.727075 0.0185854 0.
0.732611 0.016114 0.
0.738651 0.0137845 0.
0.745241 0.0120309 0.
0.752192 0.011246 0.
0.758861 0.0104345 0.
0.765159 0.0118497 0.
0.433882 0.0121304 0.
0.440002 0.0112416 0.
0.446607 0.0116757 0.
0.453306 0.0123677 0.
0.459459 0.0143907 0.
0.465244 0.0168072 0.
0.4707 0.0193257 0.
0.475634 0.0220606 0.
0.480269 0.0247598 0.
0.484797 0.0274755 0.
0.489044 0.0301903 0.
0.493163 0.0327816 0.
0.497184 0.0352693 0.
0.501077 0.037738 0.
0.504831 0.0402808 0.
0.508432 0.0428299 0.
0.511966 0.0452842 0.
0.515465 0.0475954 0.
0.518958 0.0496864 0.
0.522448 0.0516023 0.
0.525894 0.053413 0.
0.529273 0.0552655 0.
0.532622 0.0570601 0.
0.53597 0.0586775 0.
0.539267 0.0601801 0.
0.542501 0.0615169 0.
0.545608 0.062694 0.
0.548685 0.0639141 0.
0.551579 0.0648879 0.
0.554435 0.0657048 0.
0.557044 0.0662716 0.
0.55961 0.0668084 0.
0.562075 0.0671857 0.
0.564453 0.0675369 0.
0.566814 0.0678751 0.
0.568996 0.0680374 0.
0.571183 0.0682009 0.
0.573335 0.0683482 0.
0.575466 0.0684937 0.
0.577598 0.0686397 0.
0.579664 0.068688 0.
0.581728 0.0687331 0.
0.583785 0.0687751 0.
0.585822 0.0688076 0.
0.587858 0.0688401 0.
0.589889 0.068866 0.
0.591916 0.0688857 0.
0.593943 0.0689054 0.
0.595965 0.0689133 0.
0.597986 0.0689176 0.
0.600007 0.0689219 0.
0.60203 0.0689098 0.
0.604053 0.0688977 0.
0.606079 0.0688825 0.
0.608111 0.0688577 0.
0.610143 0.0688329 0.
0.612182 0.068802 0.
0.614226 0.0687646 0.
0.61627 0.0687274 0.
0.618347 0.068669 0.
0.620432 0.0686052 0.
0.622523 0.0685341 0.
0.624691 0.068349 0.
0.626855 0.0681658 0.
0.629047 0.0679872 0.
0.631272 0.0678013 0.
0.633496 0.0676126 0.
0.635961 0.0671381 0.
0.638422 0.0666754 0.
0.641058 0.0661782 0.
0.643747 0.0655834 0.
0.646533 0.0648336 0.
0.649468 0.0638182 0.
0.6525 0.0627111 0.
0.655606 0.0614739 0.
0.658754 0.0600894 0.
0.661973 0.0586351 0.
0.665283 0.057069 0.
0.668604 0.0554355 0.
0.672023 0.0536753 0.
0.675489 0.0517101 0.
0.678959 0.049583 0.
0.6825 0.0472999 0.
0.686045 0.0449177 0.
0.689654 0.0425046 0.
0.693351 0.0400787 0.
0.69714 0.0377031 0.
0.70101 0.0353016 0.
0.704924 0.0327655 0.
0.708955 0.0301472 0.
0.713187 0.0274699 0.
0.717705 0.0247698 0.
0.722323 0.0220247 0.
0.7273 0.0192715 0.
0.732737 0.0168238 0.
0.738547 0.0145194 0.
0.744896 0.012736 0.
0.751621 0.0119845 0.
0.758106 0.0112452 0.
0.764103 0.0122406 0.
0.434983 0.0127068 0.
0.440909 0.0120167 0.
0.447278 0.0123876 0.
0.453683 0.0131422 0.
0.459616 0.0151938 0.
0.465221 0.0175666 0.
0.470497 0.0200587 0.
0.475288 0.0227727 0.
0.479889 0.0254493 0.
0.484294 0.028131 0.
0.488444 0.0308186 0.
0.492476 0.0333795 0.
0.496403 0.0358369 0.
0.50023 0.0382677 0.
0.503933 0.0407836 0.
0.507485 0.043315 0.
0.510991 0.0457827 0.
0.514434 0.0481113 0.
0.517903 0.0502465 0.
0.521369 0.0521989 0.
0.524794 0.054035 0.
0.528177 0.0558907 0.
0.53154 0.0577343 0.
0.534883 0.0594154 0.
0.538194 0.0609737 0.
0.54144 0.0623811 0.
0.544626 0.0636928 0.
0.547734 0.0649648 0.
0.550703 0.0660499 0.
0.553629 0.0669866 0.
0.556419 0.067743 0.
0.559098 0.0683809 0.
0.561708 0.0688671 0.
0.56416 0.0692919 0.
0.566614 0.0697166 0.
0.568825 0.0698884 0.
0.571037 0.0700587 0.
0.573216 0.0702249 0.
0.575365 0.0703932 0.
0.577516 0.0705623 0.
0.579598 0.0706257 0.
0.581676 0.070684 0.
0.583747 0.0707375 0.
0.585788 0.0707731 0.
0.587829 0.0708087 0.
0.589866 0.0708375 0.
0.591898 0.07086 0.
0.59393 0.0708825 0.
0.595957 0.0708917 0.
0.597983 0.0708966 0.
0.600009 0.0709015 0.
0.602037 0.0708873 0.
0.604066 0.0708731 0.
0.606097 0.0708554 0.
0.608135 0.0708271 0.
0.610173 0.0707988 0.
0.612218 0.0707643 0.
0.614269 0.0707232 0.
0.616319 0.0706823 0.
0.618413 0.0706075 0.
0.620516 0.0705254 0.
0.62263 0.070433 0.
0.62482 0.0702229 0.
0.627006 0.0700149 0.
0.629231 0.0698182 0.
0.631491 0.0696223 0.
0.63377 0.0693997 0.
0.636305 0.0688186 0.
0.638824 0.0682612 0.
0.641635 0.0676399 0.
0.644448 0.0669505 0.
0.6474 0.0659898 0.
0.650355 0.0649153 0.
0.653472 0.0637072 0.
0.656627 0.062391 0.
0.659844 0.0608916 0.
0.663082 0.0593821 0.
0.6664 0.0577761 0.
0.669728 0.056097 0.
0.673114 0.0542818 0.
0.676571 0.0522491 0.
0.680009 0.0500858 0.
0.683507 0.0477914 0.
0.687019 0.0454077 0.
0.690578 0.043018 0.
0.694221 0.0406165 0.
0.697967 0.0382729 0.
0.701769 0.0358881 0.
0.705625 0.0333681 0.
0.709575 0.0307734 0.
0.713698 0.0281235 0.
0.718106 0.0254521 0.
0.722631 0.0227508 0.
0.727447 0.0200246 0.
0.732753 0.0175893 0.
0.738377 0.0153071 0.
0.744481 0.0134847 0.
0.750973 0.0127302 0.
0.757288 0.0120794 0.
0.763067 0.0127584 0.
0.436086 0.0133363 0.
0.441824 0.0127971 0.
0.447963 0.0131163 0.
0.454098 0.0139667 0.
0.459836 0.0160462 0.
0.465258 0.01838 0.
0.470371 0.0208551 0.
0.475037 0.0235509 0.
0.479556 0.0261921 0.
0.483829 0.0288355 0.
0.487874 0.0314906 0.
0.491808 0.0340124 0.
0.495643 0.036437 0.
0.499407 0.038832 0.
0.503054 0.0413137 0.
0.506556 0.0438231 0.
0.510016 0.0462854 0.
0.513419 0.0486301 0.
0.516861 0.0508052 0.
0.520292 0.0527874 0.
0.523703 0.0546561 0.
0.527102 0.0565059 0.
0.530448 0.0583652 0.
0.533774 0.0601173 0.
0.537096 0.061728 0.
0.540356 0.063202 0.
0.543579 0.0645804 0.
0.546716 0.0658899 0.
0.549798 0.0671623 0.
0.552792 0.0682114 0.
0.555756 0.0691703 0.
0.558522 0.0698764 0.
0.56123 0.0704515 0.
0.563712 0.0709156 0.
0.566221 0.0713856 0.
0.568526 0.0716213 0.
0.570832 0.0718565 0.
0.573081 0.0720753 0.
0.575249 0.0722673 0.
0.57742 0.0724606 0.
0.579521 0.0725461 0.
0.581615 0.0726241 0.
0.5837 0.0726945 0.
0.585748 0.0727332 0.
0.587796 0.0727719 0.
0.589839 0.0728038 0.
0.591877 0.0728292 0.
0.593915 0.0728546 0.
0.595948 0.072865 0.
0.59798 0.0728706 0.
0.600012 0.0728761 0.
0.602047 0.0728597 0.
0.604081 0.0728433 0.
0.606118 0.0728229 0.
0.608163 0.0727906 0.
0.610208 0.0727585 0.
0.612261 0.07272 0.
0.61432 0.0726751 0.
0.616379 0.0726303 0.
0.618491 0.0725308 0.
0.620613 0.0724213 0.
0.62275 0.0722984 0.
0.624967 0.072062 0.
0.62718 0.0718283 0.
0.629478 0.071581 0.
0.631815 0.0713319 0.
0.634194 0.0710243 0.
0.636761 0.070392 0.
0.639299 0.0697793 0.
0.642262 0.0690558 0.
0.645212 0.0682516 0.
0.648299 0.0670947 0.
0.651352 0.0658943 0.
0.654503 0.0646142 0.
0.657688 0.0632119 0.
0.66094 0.0616623 0.
0.664213 0.0600933 0.
0.667527 0.0584551 0.
0.670864 0.0567265 0.
0.674217 0.0548521 0.
0.677643 0.052782 0.
0.681064 0.0505813 0.
0.68451 0.0482877 0.
0.687984 0.0459177 0.
0.691497 0.0435492 0.
0.695079 0.0411816 0.
0.698766 0.0388767 0.
0.702498 0.0365095 0.
0.706285 0.034012 0.
0.710159 0.0314444 0.
0.714169 0.0288281 0.
0.718447 0.0261915 0.
0.722895 0.0235275 0.
0.727536 0.0208354 0.
0.732673 0.018412 0.
0.738132 0.0161478 0.
0.744012 0.0142824 0.
0.75027 0.013479 0.
0.756397 0.0129329 0.
0.762022 0.0133976 0.
0.437243 0.013996 0.
0.442794 0.0135952 0.
0.448733 0.0138811 0.
0.454618 0.0148562 0.
0.460162 0.0169672 0.
0.465417 0.019274 0.
0.470347 0.0217356 0.
0.474895 0.0244043 0.
0.479281 0.0270003 0.
0.483424 0.0296034 0.
0.487353 0.0322184 0.
0.491178 0.0346969 0.
0.494925 0.0370842 0.
0.498623 0.0394458 0.
0.5022 0.0418822 0.
0.505656 0.0443639 0.
0.509067 0.0468142 0.
0.512438 0.0491693 0.
0.515834 0.0513705 0.
0.519238 0.0533837 0.
0.522634 0.0552776 0.
0.526022 0.0571096 0.
0.529351 0.0589836 0.
0.53267 0.0607968 0.
0.535981 0.0624396 0.
0.539256 0.0639847 0.
0.542497 0.0654147 0.
0.545674 0.0667762 0.
0.548824 0.0681555 0.
0.551886 0.0693349 0.
0.554925 0.0704087 0.
0.557738 0.0711906 0.
0.560581 0.0719406 0.
0.563169 0.0724823 0.
0.565775 0.073019 0.
0.568204 0.0733388 0.
0.570612 0.0736447 0.
0.572945 0.0739241 0.
0.575132 0.0741401 0.
0.577323 0.0743577 0.
0.579443 0.0744655 0.
0.581553 0.0745635 0.
0.583653 0.0746514 0.
0.585708 0.0746933 0.
0.587762 0.0747351 0.
0.589812 0.0747701 0.
0.591855 0.0747984 0.
0.593899 0.0748267 0.
0.595939 0.0748384 0.
0.597977 0.0748446 0.
0.600015 0.0748508 0.
0.602056 0.0748321 0.
0.604096 0.0748134 0.
0.60614 0.0747903 0.
0.608192 0.0747541 0.
0.610243 0.0747181 0.
0.612304 0.0746756 0.
0.614372 0.0746269 0.
0.616439 0.0745782 0.
0.61857 0.0744528 0.
0.62071 0.0743156 0.
0.622872 0.0741619 0.
0.625117 0.0738991 0.
0.627357 0.0736395 0.
0.629743 0.0733314 0.
0.632175 0.0730146 0.
0.634702 0.0725807 0.
0.637383 0.0718557 0.
0.640093 0.0711179 0.
0.643088 0.070312 0.
0.646094 0.0694036 0.
0.649247 0.0681255 0.
0.652392 0.0668179 0.
0.655571 0.0654613 0.
0.658786 0.0639731 0.
0.662043 0.0623895 0.
0.665336 0.0607825 0.
0.668652 0.0591226 0.
0.671978 0.0573442 0.
0.675327 0.0554036 0.
0.678701 0.0533131 0.
0.682096 0.0510916 0.
0.685504 0.0487963 0.
0.688928 0.0464543 0.
0.692392 0.044112 0.
0.695914 0.041787 0.
0.699529 0.0395227 0.
0.703184 0.0371779 0.
0.706879 0.034715 0.
0.710679 0.0321777 0.
0.714584 0.0295963 0.
0.718717 0.0270063 0.
0.723067 0.0243788 0.
0.727553 0.0217154 0.
0.732487 0.0193117 0.
0.737769 0.0170644 0.
0.743424 0.0151445 0.
0.74946 0.0142406 0.
0.755409 0.0138026 0.
0.760887 0.0141163 0.
0.438458 0.0147087 0.
0.443843 0.0144211 0.
0.449595 0.0146892 0.
0.455259 0.0158242 0.
0.4606 0.0179651 0.
0.465687 0.0202471 0.
0.470414 0.0226949 0.
0.474839 0.0253351 0.
0.479073 0.0278788 0.
0.483089 0.0304418 0.
0.486886 0.0330085 0.
0.490595 0.0354409 0.
0.494263 0.0377881 0.
0.497882 0.0401129 0.
0.501389 0.0425004 0.
0.504795 0.0449493 0.
0.508149 0.0473771 0.
0.511472 0.0497271 0.
0.514831 0.0519466 0.
0.518202 0.0539871 0.
0.521573 0.0558965 0.
0.524938 0.0577249 0.
0.52826 0.0595976 0.
0.531552 0.0614358 0.
0.534857 0.0631227 0.
0.538153 0.0647368 0.
0.541395 0.0662115 0.
0.544611 0.0676146 0.
0.547791 0.0690483 0.
0.550888 0.0703257 0.
0.553962 0.0714847 0.
0.556907 0.072445 0.
0.559854 0.0733611 0.
0.562585 0.0740287 0.
0.56528 0.0746199 0.
0.56783 0.0750114 0.
0.57032 0.0753839 0.
0.572735 0.0757388 0.
0.57494 0.0759683 0.
0.577153 0.0761988 0.
0.579307 0.076338 0.
0.581449 0.0764691 0.
0.583581 0.0765888 0.
0.585646 0.0766342 0.
0.587711 0.0766798 0.
0.589771 0.076718 0.
0.591824 0.0767489 0.
0.593876 0.0767799 0.
0.595925 0.0767925 0.
0.597973 0.0767991 0.
0.60002 0.0768056 0.
0.60207 0.076785 0.
0.60412 0.0767644 0.
0.606173 0.0767386 0.
0.608235 0.0766982 0.
0.610296 0.0766579 0.
0.61237 0.0766102 0.
0.614452 0.0765557 0.
0.616534 0.0765014 0.
0.618699 0.0763378 0.
0.620869 0.0761642 0.
0.623068 0.0759742 0.
0.625343 0.0756934 0.
0.627604 0.0754171 0.
0.630068 0.0750451 0.
0.632572 0.0746706 0.
0.635261 0.0740997 0.
0.638053 0.0732871 0.
0.640958 0.0723903 0.
0.644023 0.0714414 0.
0.647108 0.0703512 0.
0.650245 0.0690568 0.
0.653461 0.0676832 0.
0.656669 0.066255 0.
0.659905 0.0646976 0.
0.663167 0.0630885 0.
0.66646 0.0614545 0.
0.669772 0.0597713 0.
0.673074 0.057953 0.
0.676411 0.0559555 0.
0.679759 0.0538407 0.
0.683105 0.051623 0.
0.686474 0.0493348 0.
0.68985 0.0470246 0.
0.693257 0.0447149 0.
0.696719 0.0424376 0.
0.70025 0.0402164 0.
0.703821 0.0379007 0.
0.707422 0.0354757 0.
0.711127 0.0329829 0.
0.714934 0.0304341 0.
0.718926 0.0278887 0.
0.723134 0.0253108 0.
0.727508 0.0226705 0.
0.732225 0.0202796 0.
0.737311 0.0180554 0.
0.742734 0.0160789 0.
0.748523 0.0150362 0.
0.754324 0.0146809 0.
0.759659 0.01488 0.
0.439736 0.0154872 0.
0.444979 0.0152692 0.
0.450547 0.0155529 0.
0.455976 0.0168755 0.
0.461117 0.0190297 0.
0.466016 0.0212878 0.
0.470561 0.0237315 0.
0.474832 0.0263335 0.
0.478919 0.0288243 0.
0.482793 0.031344 0.
0.486458 0.0338581 0.
0.490069 0.0362436 0.
0.493648 0.0385477 0.
0.49718 0.040832 0.
0.500619 0.0431693 0.
0.503965 0.0455785 0.
0.50725 0.0479738 0.
0.510533 0.0503097 0.
0.513842 0.0525333 0.
0.51718 0.0546017 0.
0.520523 0.0565244 0.
0.523857 0.0583545 0.
0.527159 0.060203 0.
0.530436 0.0620525 0.
0.533743 0.0637955 0.
0.537035 0.0654458 0.
0.540284 0.06698 0.
0.543525 0.0684227 0.
0.546708 0.0698698 0.
0.549858 0.0712583 0.
0.552976 0.0724969 0.
0.556043 0.0736232 0.
0.559056 0.074648 0.
0.561906 0.0754283 0.
0.564682 0.0760458 0.
0.567368 0.0765483 0.
0.56993 0.0770395 0.
0.572454 0.0775251 0.
0.574698 0.0777714 0.
0.576952 0.0780191 0.
0.57915 0.0781947 0.
0.581332 0.0783652 0.
0.583505 0.0785232 0.
0.585581 0.0785727 0.
0.587658 0.0786225 0.
0.589728 0.0786644 0.
0.591791 0.0786981 0.
0.593853 0.0787318 0.
0.595911 0.0787456 0.
0.597968 0.0787526 0.
0.600025 0.0787594 0.
0.602085 0.0787367 0.
0.604145 0.078714 0.
0.606208 0.0786853 0.
0.60828 0.0786403 0.
0.610352 0.0785955 0.
0.61244 0.0785416 0.
0.614539 0.0784803 0.
0.616638 0.0784192 0.
0.618846 0.0782089 0.
0.621055 0.0779912 0.
0.623312 0.0777569 0.
0.625646 0.0774488 0.
0.62797 0.0771435 0.
0.630582 0.0766382 0.
0.633165 0.076161 0.
0.635955 0.0754372 0.
0.638774 0.074621 0.
0.641851 0.073575 0.
0.644984 0.0724976 0.
0.648148 0.071238 0.
0.65131 0.0698994 0.
0.654544 0.0684997 0.
0.657776 0.0669983 0.
0.661033 0.0654006 0.
0.664301 0.0637742 0.
0.667587 0.0621195 0.
0.670883 0.0604085 0.
0.67417 0.058543 0.
0.677473 0.0565142 0.
0.680795 0.0543832 0.
0.684104 0.0521729 0.
0.687424 0.0499051 0.
0.690747 0.0476326 0.
0.694091 0.045362 0.
0.697491 0.0431374 0.
0.700939 0.0409556 0.
0.70442 0.0386765 0.
0.707928 0.0362936 0.
0.71152 0.0338508 0.
0.715222 0.0313408 0.
0.719085 0.0288357 0.
0.723138 0.026313 0.
0.727392 0.0237053 0.
0.731908 0.0213135 0.
0.736788 0.0191113 0.
0.741982 0.0170854 0.
0.747508 0.0158801 0.
0.75313 0.0155603 0.
0.758382 0.0156883 0.
0.441026 0.0163246 0.
0.446151 0.0161192 0.
0.451531 0.0164845 0.
0.456725 0.0179928 0.
0.461683 0.0201449 0.
0.466379 0.0223934 0.
0.470749 0.0248365 0.
0.47486 0.0273831 0.
0.478796 0.02983 0.
0.482503 0.0322955 0.
0.486046 0.0347523 0.
0.489566 0.0370915 0.
0.493055 0.0393487 0.
0.496493 0.0415867 0.
0.499855 0.0438721 0.
0.503131 0.0462292 0.
0.506355 0.04859 0.
0.509597 0.0509029 0.
0.512869 0.0531307 0.
0.516172 0.0552228 0.
0.519472 0.0571565 0.
0.522778 0.0589924 0.
0.526071 0.0608136 0.
0.529338 0.0626667 0.
0.532635 0.0644582 0.
0.535923 0.0661344 0.
0.539179 0.0677286 0.
0.54242 0.0692039 0.
0.545621 0.0706544 0.
0.548815 0.0721232 0.
0.551976 0.0734465 0.
0.555112 0.0746747 0.
0.558148 0.075756 0.
0.56114 0.0767352 0.
0.564034 0.0774347 0.
0.566889 0.0780556 0.
0.569525 0.0786665 0.
0.572168 0.0793076 0.
0.574454 0.0795707 0.
0.576749 0.0798329 0.
0.578991 0.0800397 0.
0.581211 0.0802493 0.
0.583424 0.0804507 0.
0.585513 0.0805044 0.
0.587602 0.0805584 0.
0.589684 0.0806041 0.
0.591756 0.0806403 0.
0.593828 0.0806765 0.
0.595896 0.0806911 0.
0.597964 0.0806982 0.
0.600031 0.0807051 0.
0.602102 0.0806807 0.
0.604172 0.0806563 0.
0.606245 0.0806249 0.
0.608327 0.0805758 0.
0.610408 0.0805268 0.
0.612513 0.0804652 0.
0.614631 0.0803951 0.
0.616748 0.0803244 0.
0.618998 0.0800677 0.
0.621243 0.0798098 0.
0.623563 0.0795333 0.
0.625956 0.0791986 0.
0.628383 0.0788429 0.
0.631128 0.0782003 0.
0.633835 0.0775787 0.
0.636766 0.0766505 0.
0.639679 0.0757182 0.
0.642801 0.0746188 0.
0.645977 0.0734455 0.
0.649181 0.0720923 0.
0.652388 0.0707064 0.
0.65563 0.0692811 0.
0.65888 0.067711 0.
0.662142 0.066089 0.
0.665427 0.0644493 0.
0.668715 0.062783 0.
0.671991 0.0610378 0.
0.675253 0.0591248 0.
0.678531 0.0570756 0.
0.681819 0.0549384 0.
0.685094 0.0527373 0.
0.688369 0.0504958 0.
0.691647 0.0482641 0.
0.694918 0.0460395 0.
0.698249 0.0438701 0.
0.70162 0.0417257 0.
0.705013 0.0394868 0.
0.708426 0.0371517 0.
0.711895 0.0347613 0.
0.715483 0.0323014 0.
0.719215 0.0298446 0.
0.723112 0.0273717 0.
0.727217 0.0248033 0.
0.731562 0.0224098 0.
0.736225 0.0202259 0.
0.741216 0.0181599 0.
0.746488 0.0167822 0.
0.751911 0.0164255 0.
0.757089 0.0165273 0.
0.442341 0.0171851 0.
0.447346 0.016975 0.
0.452517 0.0174956 0.
0.457491 0.0191664 0.
0.462273 0.021316 0.
0.466765 0.0235595 0.
0.470946 0.0259915 0.
0.474893 0.0284793 0.
0.478657 0.0308759 0.
0.482193 0.0332762 0.
0.485639 0.0356804 0.
0.489054 0.0379724 0.
0.492445 0.0401742 0.
0.495786 0.0423638 0.
0.499065 0.0445944 0.
0.502269 0.0468898 0.
0.505448 0.0492131 0.
0.508654 0.0515067 0.
0.511897 0.0537356 0.
0.515157 0.0558415 0.
0.518417 0.0577904 0.
0.521702 0.0596336 0.
0.524985 0.0614371 0.
0.528248 0.0632867 0.
0.53154 0.0651081 0.
0.534823 0.0668119 0.
0.538078 0.068458 0.
0.54132 0.0699706 0.
0.544546 0.0714273 0.
0.547762 0.0729267 0.
0.550946 0.0743305 0.
0.55412 0.0756305 0.
0.557219 0.0768111 0.
0.560315 0.0779698 0.
0.56334 0.0787801 0.
0.566367 0.0795026 0.
0.569028 0.0801833 0.
0.571695 0.0809099 0.
0.574093 0.0812437 0.
0.576494 0.0815521 0.
0.578822 0.0818254 0.
0.581076 0.0820961 0.
0.583329 0.0823628 0.
0.585434 0.0824224 0.
0.587539 0.0824823 0.
0.589636 0.0825328 0.
0.591718 0.0825715 0.
0.5938 0.0826103 0.
0.59588 0.0826256 0.
0.597959 0.0826325 0.
0.600038 0.0826392 0.
0.602121 0.0826131 0.
0.604203 0.082587 0.
0.606288 0.082553 0.
0.608379 0.0824998 0.
0.610469 0.0824468 0.
0.612594 0.0823708 0.
0.614735 0.0822824 0.
0.616885 0.0821854 0.
0.619207 0.0818532 0.
0.621512 0.081528 0.
0.623925 0.0811886 0.
0.626394 0.0808225 0.
0.628935 0.0803954 0.
0.631724 0.079693 0.
0.634571 0.0788873 0.
0.637609 0.077805 0.
0.64065 0.0767285 0.
0.643812 0.0755588 0.
0.64701 0.0743129 0.
0.650231 0.0729083 0.
0.653463 0.0714942 0.
0.656709 0.0700317 0.
0.659964 0.0684198 0.
0.663241 0.0667737 0.
0.666529 0.0651215 0.
0.669821 0.0634438 0.
0.673095 0.06166 0.
0.676341 0.0597006 0.
0.679589 0.0576375 0.
0.682849 0.0555026 0.
0.686083 0.0533158 0.
0.689322 0.0511038 0.
0.692558 0.04891 0.
0.695769 0.0467356 0.
0.699021 0.0446245 0.
0.702316 0.0425164 0.
0.705614 0.0403205 0.
0.708939 0.0380374 0.
0.712297 0.0357026 0.
0.715755 0.0332988 0.
0.719342 0.0308957 0.
0.723083 0.0284786 0.
0.727012 0.0259599 0.
0.731199 0.023566 0.
0.735654 0.0213931 0.
0.740429 0.0193085 0.
0.745485 0.017762 0.
0.750699 0.0172896 0.
0.755767 0.0173936 0.
0.443723 0.0180367 0.
0.448593 0.0178659 0.
0.453549 0.0186121 0.
0.458341 0.0204266 0.
0.462911 0.0225637 0.
0.467183 0.0248033 0.
0.471174 0.0272125 0.
0.474935 0.0296399 0.
0.478498 0.0319691 0.
0.4819 0.0343076 0.
0.485242 0.0366552 0.
0.48854 0.0388899 0.
0.491824 0.0410329 0.
0.495069 0.0431719 0.
0.498264 0.0453452 0.
0.501413 0.0475818 0.
0.504555 0.049866 0.
0.507724 0.0521334 0.
0.510929 0.0543538 0.
0.514146 0.0564651 0.
0.517382 0.0584358 0.
0.520648 0.060289 0.
0.523922 0.0620855 0.
0.527187 0.0639208 0.
0.530463 0.0657527 0.
0.533743 0.0674934 0.
0.536991 0.0691694 0.
0.540234 0.0707219 0.
0.543472 0.072188 0.
0.546702 0.0736987 0.
0.549907 0.075177 0.
0.553097 0.0765267 0.
0.556258 0.0778001 0.
0.559401 0.0790755 0.
0.5625 0.080008 0.
0.565562 0.0807684 0.
0.568339 0.0815465 0.
0.571099 0.0824013 0.
0.573674 0.082881 0.
0.576213 0.0832574 0.
0.578649 0.0836055 0.
0.580937 0.0839379 0.
0.583229 0.0842708 0.
0.585354 0.0843402 0.
0.587476 0.084406 0.
0.589587 0.0844614 0.
0.591679 0.0845027 0.
0.593772 0.0845441 0.
0.595863 0.0845601 0.
0.597954 0.0845668 0.
0.600045 0.0845732 0.
0.60214 0.0845454 0.
0.604235 0.0845177 0.
0.606331 0.084481 0.
0.608431 0.0844238 0.
0.610531 0.0843667 0.
0.612677 0.0842752 0.
0.614841 0.0841683 0.
0.61703 0.0840396 0.
0.619425 0.0836307 0.
0.621797 0.0832328 0.
0.624346 0.0828093 0.
0.626942 0.0823763 0.
0.62967 0.0817836 0.
0.632518 0.0809599 0.
0.635441 0.0800065 0.
0.638524 0.0788694 0.
0.641662 0.0776894 0.
0.644845 0.0764563 0.
0.648067 0.0751297 0.
0.651297 0.073704 0.
0.654537 0.0722644 0.
0.657789 0.0707511 0.
0.661035 0.0691246 0.
0.664313 0.0674698 0.
0.667602 0.0658031 0.
0.670893 0.0641073 0.
0.674164 0.0622807 0.
0.677406 0.0602867 0.
0.680638 0.0582129 0.
0.683863 0.0560888 0.
0.687061 0.0539211 0.
0.690259 0.0517445 0.
0.693457 0.0495865 0.
0.696623 0.0474649 0.
0.699798 0.0454095 0.
0.703007 0.0433417 0.
0.706218 0.0411894 0.
0.709454 0.0389584 0.
0.712705 0.0366808 0.
0.716027 0.0343436 0.
0.719462 0.0319974 0.
0.723038 0.0296417 0.
0.726781 0.0271881 0.
0.730777 0.024803 0.
0.735045 0.0226322 0.
0.739591 0.0205479 0.
0.744428 0.01886 0.
0.749436 0.0181829 0.
0.754362 0.0182654 0.
0.445193 0.0188749 0.
0.449913 0.0188461 0.
0.454664 0.01986 0.
0.45925 0.0217724 0.
0.463578 0.023893 0.
0.467634 0.0261341 0.
0.471408 0.0285042 0.
0.474965 0.0308543 0.
0.478339 0.0331133 0.
0.481627 0.0353985 0.
0.484848 0.0376768 0.
0.48803 0.0398472 0.
0.491213 0.0419363 0.
0.494358 0.0440199 0.
0.497473 0.0461367 0.
0.500577 0.0483139 0.
0.503686 0.0505529 0.
0.506815 0.0527908 0.
0.509978 0.0549895 0.
0.513157 0.0571016 0.
0.516368 0.0590929 0.
0.519619 0.0609596 0.
0.522883 0.0627537 0.
0.526137 0.0645661 0.
0.529401 0.0663988 0.
0.53267 0.0681762 0.
0.53591 0.0698685 0.
0.53915 0.0714615 0.
0.542393 0.0729479 0.
0.545633 0.0744511 0.
0.548852 0.0759713 0.
0.552057 0.0773767 0.
0.555277 0.0787185 0.
0.558431 0.0800259 0.
0.561565 0.0811097 0.
0.564678 0.0819664 0.
0.567608 0.0828621 0.
0.570454 0.0838387 0.
0.573199 0.0844888 0.
0.575857 0.0849245 0.
0.578393 0.0853418 0.
0.580704 0.0857194 0.
0.583041 0.0861029 0.
0.585217 0.0862056 0.
0.587381 0.0862933 0.
0.589527 0.0863656 0.
0.591633 0.0864077 0.
0.593739 0.0864498 0.
0.595844 0.0864656 0.
0.597949 0.0864715 0.
0.600055 0.086477 0.
0.602164 0.0864481 0.
0.604274 0.0864193 0.
0.606384 0.086381 0.
0.608498 0.0863223 0.
0.610612 0.0862637 0.
0.612802 0.0861411 0.
0.615014 0.0859987 0.
0.617271 0.0858147 0.
0.619722 0.085347 0.
0.622135 0.084904 0.
0.624824 0.084401 0.
0.627541 0.0839036 0.
0.63045 0.0831099 0.
0.633363 0.0821576 0.
0.636394 0.0809974 0.
0.639506 0.0798219 0.
0.642688 0.0785919 0.
0.645893 0.0772971 0.
0.649136 0.0759176 0.
0.652373 0.0744835 0.
0.655613 0.0730215 0.
0.658865 0.0714561 0.
0.662113 0.0698215 0.
0.665378 0.0681682 0.
0.668654 0.0664983 0.
0.67194 0.0647753 0.
0.675208 0.0629033 0.
0.678434 0.0608923 0.
0.68166 0.0588142 0.
0.684858 0.0566996 0.
0.688021 0.0545561 0.
0.691176 0.052418 0.
0.694334 0.0502994 0.
0.697461 0.0482326 0.
0.700575 0.0462284 0.
0.703697 0.0442006 0.
0.706816 0.0421001 0.
0.709956 0.0399268 0.
0.71311 0.0377013 0.
0.716303 0.0354333 0.
0.719585 0.0331554 0.
0.722986 0.0308633 0.
0.726542 0.0284827 0.
0.730316 0.0261271 0.
0.734373 0.0239592 0.
0.738701 0.0218762 0.
0.743288 0.020087 0.
0.748078 0.0191549 0.
0.752839 0.0191379 0.
0.446755 0.0197409 0.
0.451309 0.0199592 0.
0.45584 0.0212486 0.
0.460177 0.0232011 0.
0.46427 0.0253151 0.
0.468075 0.0275434 0.
0.471615 0.0298497 0.
0.474964 0.0321157 0.
0.478189 0.0343132 0.
0.481347 0.0365305 0.
0.484443 0.0387322 0.
0.487528 0.0408465 0.
0.490607 0.0428803 0.
0.49366 0.0449081 0.
0.496706 0.046971 0.
0.499765 0.0490845 0.
0.502835 0.0512736 0.
0.505919 0.0534767 0.
0.509039 0.055647 0.
0.512185 0.0577533 0.
0.515376 0.0597624 0.
0.518607 0.061641 0.
0.521854 0.0634349 0.
0.525101 0.0652281 0.
0.528349 0.0670515 0.
0.531598 0.0688508 0.
0.534841 0.0705622 0.
0.538074 0.0721947 0.
0.541316 0.0737054 0.
0.544573 0.0751948 0.
0.547809 0.0767372 0.
0.551035 0.0782075 0.
0.554278 0.0795853 0.
0.557449 0.0809123 0.
0.560621 0.0821534 0.
0.563772 0.0831015 0.
0.566834 0.0840811 0.
0.569723 0.0850944 0.
0.572562 0.0859025 0.
0.575288 0.0864431 0.
0.57798 0.0870125 0.
0.580372 0.0874476 0.
0.582795 0.0878924 0.
0.58505 0.0880471 0.
0.587271 0.0881673 0.
0.589464 0.0882644 0.
0.591584 0.0883073 0.
0.593704 0.0883503 0.
0.595824 0.0883658 0.
0.597945 0.0883708 0.
0.600065 0.0883753 0.
0.60219 0.0883449 0.
0.604314 0.0883145 0.
0.60644 0.0882744 0.
0.608571 0.0882141 0.
0.610701 0.0881538 0.
0.612955 0.0879865 0.
0.615235 0.0877933 0.
0.6176 0.0875227 0.
0.620151 0.0869665 0.
0.622676 0.0864329 0.
0.625465 0.0858335 0.
0.628255 0.0852743 0.
0.631272 0.0843233 0.
0.634258 0.0832308 0.
0.637363 0.0819514 0.
0.640515 0.0807344 0.
0.643718 0.0794601 0.
0.646937 0.0781079 0.
0.650187 0.0766965 0.
0.653433 0.0752575 0.
0.656684 0.0737644 0.
0.659937 0.0721598 0.
0.663183 0.0705179 0.
0.666442 0.068864 0.
0.669707 0.0671937 0.
0.672973 0.0654443 0.
0.676229 0.0635319 0.
0.679445 0.0615108 0.
0.682653 0.0594401 0.
0.685829 0.0573402 0.
0.688963 0.0552211 0.
0.692079 0.0531222 0.
0.695192 0.0510488 0.
0.698285 0.0490361 0.
0.701347 0.0470796 0.
0.704391 0.0450931 0.
0.707424 0.0430395 0.
0.710464 0.0409296 0.
0.71352 0.0387626 0.
0.716601 0.0365563 0.
0.719735 0.0343522 0.
0.722958 0.0321341 0.
0.72632 0.0298334 0.
0.729871 0.027525 0.
0.733672 0.0253754 0.
0.73776 0.0233019 0.
0.742099 0.0214324 0.
0.746631 0.0202546 0.
0.7512 0.0200467 0.
0.448359 0.0207006 0.
0.452711 0.0212256 0.
0.456994 0.0227343 0.
0.461077 0.0247054 0.
0.464903 0.0268025 0.
0.468434 0.028993 0.
0.47175 0.0312199 0.
0.47491 0.0334015 0.
0.477986 0.035529 0.
0.481011 0.0376717 0.
0.483998 0.0398005 0.
0.486989 0.0418574 0.
0.489972 0.0438426 0.
0.492948 0.0458171 0.
0.495932 0.0478239 0.
0.498946 0.0498785 0.
0.501971 0.0520128 0.
0.505009 0.0541748 0.
0.508094 0.0563166 0.
0.51122 0.0584165 0.
0.51439 0.0604363 0.
0.517604 0.0623303 0.
0.520839 0.0641294 0.
0.524074 0.0659082 0.
0.527309 0.0677151 0.
0.530548 0.0695236 0.
0.533787 0.0712599 0.
0.537014 0.0729239 0.
0.540266 0.074466 0.
0.543543 0.0759481 0.
0.546788 0.0774964 0.
0.550028 0.0790216 0.
0.553277 0.0804316 0.
0.556477 0.0817821 0.
0.55967 0.0831041 0.
0.562859 0.0841613 0.
0.565992 0.0851809 0.
0.568926 0.0862287 0.
0.57187 0.0872313 0.
0.574689 0.0879163 0.
0.577536 0.0886624 0.
0.580025 0.089164 0.
0.582538 0.0896692 0.
0.584882 0.0898799 0.
0.587158 0.0900316 0.
0.589402 0.0901576 0.
0.591536 0.0902009 0.
0.593671 0.0902442 0.
0.595805 0.0902594 0.
0.597941 0.0902635 0.
0.600076 0.090267 0.
0.602215 0.0902353 0.
0.604354 0.0902037 0.
0.606496 0.0901621 0.
0.608643 0.0901007 0.
0.610789 0.0900394 0.
0.613112 0.0898231 0.
0.615461 0.0895782 0.
0.617945 0.089211 0.
0.620601 0.0885649 0.
0.623272 0.0879159 0.
0.626155 0.0871918 0.
0.629071 0.0864581 0.
0.632131 0.085402 0.
0.635183 0.0842062 0.
0.638335 0.0828745 0.
0.641526 0.0816213 0.
0.644736 0.0803104 0.
0.647972 0.0789111 0.
0.651228 0.0774817 0.
0.654474 0.0760306 0.
0.657725 0.0744983 0.
0.660989 0.0728714 0.
0.664239 0.0712267 0.
0.667491 0.0695675 0.
0.670748 0.0678883 0.
0.674005 0.0661045 0.
0.677242 0.0641657 0.
0.680444 0.0621417 0.
0.683637 0.0600819 0.
0.686794 0.0579997 0.
0.6899 0.0559103 0.
0.692986 0.053848 0.
0.696056 0.0518244 0.
0.69911 0.0498647 0.
0.702134 0.0479466 0.
0.705117 0.0459987 0.
0.708072 0.04399 0.
0.711023 0.0419359 0.
0.713977 0.0398328 0.
0.716948 0.0376909 0.
0.719951 0.0355569 0.
0.723013 0.0334171 0.
0.726173 0.0312132 0.
0.729502 0.0289658 0.
0.733041 0.0268471 0.
0.736846 0.0248101 0.
0.740922 0.0228883 0.
0.745189 0.0215007 0.
0.749535 0.0210382 0.
0.449917 0.0218163 0.
0.454044 0.0226383 0.
0.458068 0.0242929 0.
0.461867 0.026266 0.
0.465382 0.0283165 0.
0.468653 0.0304427 0.
0.471751 0.0325784 0.
0.474735 0.0346717 0.
0.477669 0.0367244 0.
0.480573 0.0387967 0.
0.48347 0.0408574 0.
0.486371 0.0428602 0.
0.489269 0.0448028 0.
0.49218 0.0467281 0.
0.495114 0.0486838 0.
0.498084 0.0506838 0.
0.501064 0.0527583 0.
0.504067 0.0548785 0.
0.50713 0.0569948 0.
0.510245 0.0590866 0.
0.5134 0.0611153 0.
0.516604 0.0630275 0.
0.519831 0.0648372 0.
0.523056 0.0666091 0.
0.526284 0.0683998 0.
0.529516 0.0702062 0.
0.532753 0.0719697 0.
0.535989 0.0736575 0.
0.539256 0.0752334 0.
0.542541 0.0767237 0.
0.545801 0.0782678 0.
0.549049 0.0798237 0.
0.552301 0.0812656 0.
0.555524 0.0826414 0.
0.558736 0.0840116 0.
0.561947 0.0851739 0.
0.565106 0.0862247 0.
0.568129 0.0873329 0.
0.571156 0.0884619 0.
0.574093 0.0893316 0.
0.577025 0.0901738 0.
0.579622 0.0907298 0.
0.582203 0.0912663 0.
0.584653 0.0915785 0.
0.587013 0.0918233 0.
0.589338 0.092031 0.
0.591488 0.0920748 0.
0.593639 0.0921187 0.
0.595789 0.0921338 0.
0.597939 0.0921371 0.
0.600089 0.0921399 0.
0.602242 0.0921064 0.
0.604395 0.092073 0.
0.606551 0.092029 0.
0.608713 0.0919648 0.
0.610873 0.0919007 0.
0.61333 0.0915606 0.
0.61579 0.0912068 0.
0.618379 0.0907276 0.
0.621072 0.09006 0.
0.623868 0.0893304 0.
0.626838 0.0885062 0.
0.629884 0.0875817 0.
0.632991 0.0864263 0.
0.636101 0.0851178 0.
0.639288 0.0837779 0.
0.642511 0.0824969 0.
0.645731 0.0811393 0.
0.648978 0.0797152 0.
0.65224 0.0782796 0.
0.655488 0.0768094 0.
0.65874 0.0752336 0.
0.662011 0.0735962 0.
0.665271 0.0719512 0.
0.668525 0.0702885 0.
0.67178 0.0685873 0.
0.675032 0.0667638 0.
0.678259 0.0648049 0.
0.68145 0.0627814 0.
0.684627 0.0607365 0.
0.687769 0.0586748 0.
0.690851 0.0566163 0.
0.693911 0.0545884 0.
0.696947 0.0526176 0.
0.699963 0.0507086 0.
0.702952 0.0488223 0.
0.705889 0.0469078 0.
0.708785 0.0449379 0.
0.711662 0.0429287 0.
0.714526 0.0408856 0.
0.717396 0.0388104 0.
0.720276 0.0367454 0.
0.723203 0.0346781 0.
0.726185 0.032572 0.
0.729279 0.0304198 0.
0.732566 0.0283417 0.
0.736074 0.0263582 0.
0.739845 0.0244361 0.
0.743835 0.0228931 0.
0.747943 0.022144 0.
0.451385 0.0231105 0.
0.455257 0.0241872 0.
0.458985 0.0259168 0.
0.462453 0.0278451 0.
0.465663 0.0298309 0.
0.468695 0.0318748 0.
0.47159 0.0339107 0.
0.474428 0.0359195 0.
0.477243 0.0379039 0.
0.480051 0.0399142 0.
0.482864 0.0419105 0.
0.485687 0.0438681 0.
0.488523 0.0457746 0.
0.491385 0.0476599 0.
0.494277 0.0495732 0.
0.497203 0.0515225 0.
0.500152 0.0535401 0.
0.503138 0.05562 0.
0.506192 0.0577092 0.
0.509302 0.0597914 0.
0.512446 0.061824 0.
0.515639 0.0637514 0.
0.518859 0.065575 0.
0.522073 0.0673435 0.
0.525296 0.0691197 0.
0.528527 0.0709176 0.
0.531768 0.0727003 0.
0.535016 0.0744098 0.
0.538294 0.076017 0.
0.541585 0.0775247 0.
0.544855 0.0790578 0.
0.548108 0.0806221 0.
0.551364 0.0821012 0.
0.55461 0.0835112 0.
0.55784 0.0849045 0.
0.561063 0.086162 0.
0.564237 0.0872571 0.
0.567331 0.0884066 0.
0.570425 0.0896009 0.
0.573425 0.0905718 0.
0.576384 0.0914894 0.
0.579139 0.0922028 0.
0.581827 0.0928252 0.
0.584409 0.093263 0.
0.586859 0.0936067 0.
0.589273 0.0939043 0.
0.591439 0.0939488 0.
0.593607 0.0939933 0.
0.595772 0.0940082 0.
0.597937 0.0940108 0.
0.600102 0.0940127 0.
0.602269 0.0939775 0.
0.604436 0.0939423 0.
0.606607 0.0938958 0.
0.608782 0.0938287 0.
0.610957 0.0937618 0.
0.613571 0.0932776 0.
0.61617 0.0927904 0.
0.618884 0.0921613 0.
0.621631 0.0914166 0.
0.624525 0.090578 0.
0.627534 0.0897208 0.
0.630684 0.0886543 0.
0.633837 0.0874185 0.
0.636989 0.0860219 0.
0.6402 0.0846785 0.
0.643443 0.0833715 0.
0.646679 0.0819705 0.
0.649937 0.0805327 0.
0.653207 0.0790914 0.
0.656457 0.0776003 0.
0.659712 0.0759868 0.
0.662992 0.0743427 0.
0.666259 0.072698 0.
0.669513 0.0710369 0.
0.67277 0.0693088 0.
0.676019 0.0674444 0.
0.679238 0.065474 0.
0.682425 0.0634577 0.
0.68559 0.0614307 0.
0.68872 0.0593896 0.
0.691785 0.057363 0.
0.694823 0.0553708 0.
0.697835 0.0534488 0.
0.700816 0.0515858 0.
0.703772 0.049727 0.
0.706681 0.0478384 0.
0.709531 0.0458998 0.
0.712354 0.0439271 0.
0.715149 0.0419336 0.
0.717936 0.0399219 0.
0.720716 0.0379199 0.
0.723518 0.0359219 0.
0.726364 0.0339005 0.
0.729254 0.0318539 0.
0.732282 0.0298467 0.
0.73551 0.0279157 0.
0.738952 0.0260465 0.
0.742631 0.0244108 0.
0.746478 0.0233988 0.
0.452653 0.0245582 0.
0.456239 0.0258126 0.
0.459617 0.0275428 0.
0.462763 0.0294177 0.
0.465714 0.0313267 0.
0.468526 0.0332708 0.
0.471266 0.0352147 0.
0.474002 0.03715 0.
0.476736 0.0390877 0.
0.479473 0.0410495 0.
0.482212 0.0429922 0.
0.484989 0.044911 0.
0.487788 0.0467903 0.
0.490621 0.0486519 0.
0.493472 0.0505305 0.
0.496362 0.0524303 0.
0.499295 0.0543963 0.
0.502279 0.0564363 0.
0.505325 0.0584963 0.
0.508436 0.0605657 0.
0.511565 0.0625909 0.
0.514748 0.0645255 0.
0.517954 0.066357 0.
0.52116 0.0681233 0.
0.524384 0.0698934 0.
0.527616 0.071679 0.
0.530856 0.0734697 0.
0.53412 0.0751996 0.
0.537402 0.0768295 0.
0.54069 0.0783576 0.
0.54396 0.0798755 0.
0.547224 0.0814389 0.
0.550489 0.0829546 0.
0.553742 0.0843977 0.
0.556986 0.085798 0.
0.560215 0.0871219 0.
0.563404 0.0882764 0.
0.56655 0.0894274 0.
0.569679 0.090642 0.
0.572731 0.0917386 0.
0.575731 0.0927615 0.
0.578638 0.0936451 0.
0.581435 0.0943481 0.
0.584158 0.094914 0.
0.586694 0.0953489 0.
0.589203 0.0957533 0.
0.591387 0.0957979 0.
0.593573 0.0958425 0.
0.595755 0.0958577 0.
0.597936 0.0958601 0.
0.600117 0.0958618 0.
0.602299 0.0958258 0.
0.60448 0.0957899 0.
0.606666 0.0957415 0.
0.608857 0.0956723 0.
0.611047 0.0956033 0.
0.613823 0.0949587 0.
0.616568 0.0943422 0.
0.619394 0.0935665 0.
0.622197 0.092747 0.
0.625193 0.0917739 0.
0.628239 0.0908369 0.
0.631459 0.0896643 0.
0.63466 0.0883514 0.
0.637842 0.0869296 0.
0.641061 0.0855923 0.
0.644318 0.0842571 0.
0.647566 0.0828259 0.
0.65083 0.0813777 0.
0.654104 0.07993 0.
0.657368 0.0784102 0.
0.660621 0.0767753 0.
0.663897 0.0751288 0.
0.667176 0.0734812 0.
0.670433 0.0718211 0.
0.673679 0.0700696 0.
0.676923 0.0681738 0.
0.680144 0.0661978 0.
0.683333 0.0641946 0.
0.686488 0.0621947 0.
0.689602 0.0601819 0.
0.692652 0.0581846 0.
0.695674 0.0562281 0.
0.698668 0.0543507 0.
0.701625 0.0525243 0.
0.70455 0.0506916 0.
0.707438 0.0488226 0.
0.710265 0.0469056 0.
0.713049 0.0449652 0.
0.715802 0.0430099 0.
0.718533 0.0410511 0.
0.721242 0.0391041 0.
0.723952 0.0371607 0.
0.726688 0.0352122 0.
0.729441 0.0332559 0.
0.732243 0.0313377 0.
0.735199 0.0294653 0.
0.738343 0.0276576 0.
0.74169 0.0260109 0.
0.745237 0.0248039 0.
0.453625 0.0260965 0.
0.456887 0.02745 0.
0.45994 0.0291789 0.
0.462822 0.0309969 0.
0.465539 0.0328132 0.
0.468188 0.0346625 0.
0.47084 0.0365371 0.
0.473514 0.0384249 0.
0.476197 0.0403375 0.
0.478879 0.0422616 0.
0.481582 0.044164 0.
0.484348 0.0460513 0.
0.487133 0.0479076 0.
0.489941 0.0497536 0.
0.492755 0.0515998 0.
0.495622 0.0534513 0.
0.498557 0.0553755 0.
0.501539 0.0573713 0.
0.50458 0.0593979 0.
0.507682 0.0614472 0.
0.510798 0.0634523 0.
0.513972 0.0653822 0.
0.517157 0.0672149 0.
0.520364 0.068981 0.
0.52359 0.0707425 0.
0.526818 0.0725108 0.
0.530068 0.0743098 0.
0.533336 0.0760574 0.
0.536612 0.0776963 0.
0.539898 0.0792437 0.
0.543177 0.0807595 0.
0.546443 0.082309 0.
0.549712 0.0838507 0.
0.55298 0.0853249 0.
0.556224 0.0867254 0.
0.559462 0.0880798 0.
0.562667 0.0892991 0.
0.565834 0.0904599 0.
0.568977 0.0916857 0.
0.572077 0.0928798 0.
0.575136 0.0939975 0.
0.578194 0.0950242 0.
0.581073 0.0957637 0.
0.583867 0.0964458 0.
0.5865 0.0970252 0.
0.589124 0.0975836 0.
0.59133 0.0976299 0.
0.593537 0.0976762 0.
0.595738 0.0976926 0.
0.597936 0.0976955 0.
0.600134 0.0976976 0.
0.602331 0.0976607 0.
0.604527 0.0976238 0.
0.60673 0.0975728 0.
0.60894 0.0974999 0.
0.611157 0.097418 0.
0.614041 0.0965197 0.
0.616881 0.0957409 0.
0.619799 0.0949214 0.
0.622707 0.0940385 0.
0.625807 0.0929518 0.
0.62891 0.0919164 0.
0.632141 0.0906609 0.
0.635397 0.0892956 0.
0.638605 0.0878631 0.
0.641829 0.086532 0.
0.645086 0.085181 0.
0.648342 0.0837349 0.
0.651613 0.0822755 0.
0.654891 0.0808155 0.
0.658159 0.0792775 0.
0.661423 0.0776253 0.
0.664695 0.075976 0.
0.66798 0.0743333 0.
0.67124 0.0726731 0.
0.674473 0.0709019 0.
0.677705 0.0689878 0.
0.680925 0.0670157 0.
0.684119 0.0650356 0.
0.687266 0.0630698 0.
0.690365 0.0610924 0.
0.693405 0.0591172 0.
0.696416 0.0571961 0.
0.699393 0.0553615 0.
0.702334 0.0535704 0.
0.705241 0.0517631 0.
0.708105 0.0499118 0.
0.710921 0.0480089 0.
0.713695 0.0460966 0.
0.716428 0.0441697 0.
0.719129 0.0422577 0.
0.721796 0.0403653 0.
0.724448 0.0384648 0.
0.727105 0.0365681 0.
0.729769 0.0346788 0.
0.73242 0.0328366 0.
0.735141 0.0310308 0.
0.738022 0.029275 0.
0.741071 0.0276375 0.
0.744298 0.02631 0.
CELLS 5000 10000
1 0
1 1
1 2
1 3
1 4
1 5
1 6
1 7
1 8
1 9
1 10
1 11
1 12
1 13
1 14
1 15
1 16
1 17
1 18
1 19
1 20
1 21
1 22
1 23
1 24
1 25
1 26
1 27
1 28
1 29
1 30
1 31
1 32
1 33
1 34
1 35
1 36
1 37
1 38
1 39
1 40
1 41
1 42
1 43
1 44
1 45
1 46
1 47
1 48
1 49
1 50
1 51
1 52
1 53
1 54
1 55
1 56
1 57
1 58
1 59
1 60
1 61
1 62
1 63
1 64
1 65
1 66
1 67
1 68
1 69
1 70
1 71
1 72
1 73
1 74
1 75
1 76
1 77
1 78
1 79
1 80
1 81
1 82
1 83
1 84
1 85
1 86
1 87
1 88
1 89
1 90
1 91
1 92
1 93
1 94
1 95
1 96
1 97
1 98
1 99
1 100
1 101
1 102
1 103
1 104
1 105
1 106
1 107
1 108
1 109
1 110
1 111
1 112
1 113
1 114
1 115
1 116
1 117
1 118
1 119
1 120
1 121
1 122
1 123
1 124
1 125
1 126
1 127
1 128
1 129
1 130
1 131
1 132
1 133
1 134
1 135
1 136
1 137
1 138
1 139
1 140
1 141
1 142
1 143
1 144
1 145
1 146
1 147
1 148
1 149
1 150
1 151
1 152
1 153
1 154
1 155
1 156
1 157
1 158
1 159
1 160
1 161
1 162
1 163
1 164
1 165
1 166
1 167
1 168
1 169
1 170
1 171
1 172
1 173
1 174
1 175
1 176
1 177
1 178
1 179
1 180
1 181
1 182
1 183
1 184
1 185
1 186
1 187
1 188
1 189
1 190
1 191
1 192
1 193
1 194
1 195
1 196
1 197
1 198
1 199
1 200
1 201
1 202
1 203
1 204
1 205
1 206
1 207
1 208
1 209
1 210
1 211
1 212
1 213
1 214
1 215
1 216
1 217
1 218
1 219
1 220
1 221
1 222
1 223
1 224
1 225
1 226
1 227
1 228
1 229
1 230
1 231
1 232
1 233
1 234
1 235
1 236
1 237
1 238
1 239
1 240
1 241
1 242
1 243
1 244
1 245
1 246
1 247
1 248
1 249
1 250
1 251
1 252
1 253
1 254
1 255
1 256
1 257
1 258
1 259
1 260
1 261
1 262
1 263
1 264
1 265
1 266
1 267
1 268
1 269
1 270
1 271
1 272
1 273
1 274
1 275
1 276
1 277
1 278
1 279
1 280
1 281
1 282
1 283
1 284
1 285
1 286
1 287
1 288
1 289
1 290
1 291
1 292
1 293
1 294
1 295
1 296
1 297
1 298
1 299
1 300
1 301
1 302
1 303
1 304
1 305
1 306
1 307
1 308
1 309
1 310
1 311
1 312
1 313
1 314
1 315
1 316
1 317
1 318
1 319
1 320
1 321
1 322
1 323
1 324
1 325
1 326
1 327
1 328
1 329
1 330
1 331
1 332
1 333
1 334
1 335
1 336
1 337
1 338
1 339
1 340
1 341
1 342
1 343
1 344
1 345
1 346
1 347
1 348
1 349
1 350
1 351
1 352
1 353
1 354
1 355
1 356
1 357
1 358
1 359
1 360
1 361
1 362
1 363
1 364
1 365
1 366
1 367
1 368
1 369
1 370
1 371
1 372
1 373
1 374
1 375
1 376
1 377
1 378
1 379
1 380
1 381
1 382
1 383
1 384
1 385
1 386
1 387
1 388
1 389
1 390
1 391
1 392
1 393
1 394
1 395
1 396
1 397
1 398
1 399
1 400
1 401
1 402
1 403
1 404
1 405
1 406
1 407
1 408
1 409
1 410
1 411
1 412
1 413
1 414
1 415
1 416
1 417
1 418
1 419
1 420
1 421
1 422
1 423
1 424
1 425
1 426
1 427
1 428
1 429
1 430
1 431
1 432
1 433
1 434
1 435
1 436
1 437
1 438
1 439
1 440
1 441
1 442
1 443
1 444
1 445
1 446
1 447
1 448
1 449
1 450
1 451
1 452
1 453
1 454
1 455
1 456
1 457
1 458
1 459
1 460
1 461
1 462
1 463
1 464
1 465
1 466
1 467
1 468
1 469
1 470
1 471
1 472
1 473
1 474
1 475
1 476
1 477
1 478
1 479
1 480
1 481
1 482
1 483
1 484
1 485
1 486
1 487
1 488
1 489
1 490
1 491
1 492
1 493
1 494
1 495
1 496
1 497
1 498
1 499
1 500
1 501
1 502
1 503
1 504
1 505
1 506
1 507
1 508
1 509
1 510
1 511
1 512
1 513
1 514
1 515
1 516
1 517
1 518
1 519
1 520
1 521
1 522
1 523
1 524
1 525
1 526
1 527
1 528
1 529
1 530
1 531
1 532
1 533
1 534
1 535
1 536
1 537
1 538
1 539
1 540
1 541
1 542
1 543
1 544
1 545
1 546
1 547
1 548
1 549
1 550
1 551
1 552
1 553
1 554
1 555
1 556
1 557
1 558
1 559
1 560
1 561
1 562
1 563
1 564
1 565
1 566
1 567
1 568
1 569
1 570
1 571
1 572
1 573
1 574
1 575
1 576
1 577
1 578
1 579
1 580
1 581
1 582
1 583
1 584
1 585
1 586
1 587
1 588
1 589
1 590
1 591
1 592
1 593
1 594
1 595
1 596
1 597
1 598
1 599
1 600
1 601
1 602
1 603
1 604
1 605
1 606
1 607
1 608
1 609
1 610
1 611
1 612
1 613
1 614
1 615
1 616
1 617
1 618
1 619
1 620
1 621
1 622
1 623
1 624
1 625
1 626
1 627
1 628
1 629
1 630
1 631
1 632
1 633
1 634
1 635
1 636
1 637
1 638
1 639
1 640
1 641
1 642
1 643
1 644
1 645
1 646
1 647
1 648
1 649
1 650
1 651
1 652
1 653
1 654
1 655
1 656
1 657
1 658
1 659
1 660
1 661
1 662
1 663
1 664
1 665
1 666
1 667
1 668
1 669
1 670
1 671
1 672
1 673
1 674
1 675
1 676
1 677
1 678
1 679
1 680
1 681
1 682
1 683
1 684
1 685
1 686
1 687
1 688
1 689
1 690
1 691
1 692
1 693
1 694
1 695
1 696
1 697
1 698
1 699
1 700
1 701
1 702
1 703
1 704
1 705
1 706
1 707
1 708
1 709
1 710
1 711
1 712
1 713
1 714
1 715
1 716
1 717
1 718
1 719
1 720
1 721
1 722
1 723
1 724
1 725
1 726
1 727
1 728
1 729
1 730
1 731
1 732
1 733
1 734
1 735
1 736
1 737
1 738
1 739
1 740
1 741
1 742
1 743
1 744
1 745
1 746
1 747
1 748
1 749
1 750
1 751
1 752
1 753
1 754
1 755
1 756
1 757
1 758
1 759
1 760
1 761
1 762
1 763
1 764
1 765
1 766
1 767
1 768
1 769
1 770
1 771
1 772
1 773
1 774
1 775
1 776
1 777
1 778
1 779
1 780
1 781
1 782
1 783
1 784
1 785
1 786
1 787
1 788
1 789
1 790
1 791
1 792
1 793
1 794
1 795
1 796
1 797
1 798
1 799
1 800
1 801
1 802
1 803
1 804
1 805
1 806
1 807
1 808
1 809
1 810
1 811
1 812
1 813
1 814
1 815
1 816
1 817
1 818
1 819
1 820
1 821
1 822
1 823
1 824
1 825
1 826
1 827
1 828
1 829
1 830
1 831
1 832
1 833
1 834
1 835
1 836
1 837
1 838
1 839
1 840
1 841
1 842
1 843
1 844
1 845
1 846
1 847
1 848
1 849
1 850
1 851
1 852
1 853
1 854
1 855
1 856
1 857
1 858
1 859
1 860
1 861
1 862
1 863
1 864
1 865
1 866
1 867
1 868
1 869
1 870
1 871
1 872
1 873
1 874
1 875
1 876
1 877
1 878
1 879
1 880
1 881
1 882
1 883
1 884
1 885
1 886
1 887
1 888
1 889
1 890
1 891
1 892
1 893
1 894
1 895
1 896
1 897
1 898
1 899
1 900
1 901
1 902
1 903
1 904
1 905
1 906
1 907
1 908
1 909
1 910
1 911
1 912
1 913
1 914
1 915
1 916
1 917
1 918
1 919
1 920
1 921
1 922
1 923
1 924
1 925
1 926
1 927
1 928
1 929
1 930
1 931
1 932
1 933
1 934
1 935
1 936
1 937
1 938
1 939
1 940
1 941
1 942
1 943
1 944
1 945
1 946
1 947
1 948
1 949
1 950
1 951
1 952
1 953
1 954
1 955
1 956
1 957
1 958
1 959
1 960
1 961
1 962
1 963
1 964
1 965
1 966
1 967
1 968
1 969
1 970
1 971
1 972
1 973
1 974
1 975
1 976
1 977
1 978
1 979
1 980
1 981
1 982
1 983
1 984
1 985
1 986
1 987
1 988
1 989
1 990
1 991
1 992
1 993
1 994
1 995
1 996
1 997
1 998
1 999
1 1000
1 1001
1 1002
1 1003
1 1004
1 1005
1 1006
1 1007
1 1008
1 1009
1 1010
1 1011
1 1012
1 1013
1 1014
1 1015
1 1016
1 1017
1 1018
1 1019
1 1020
1 1021
1 1022
1 1023
1 1024
1 1025
1 1026
1 1027
1 1028
1 1029
1 1030
1 1031
1 1032
1 1033
1 1034
1 1035
1 1036
1 1037
1 1038
1 1039
1 1040
1 1041
1 1042
1 1043
1 1044
1 1045
1 1046
1 1047
1 1048
1 1049
1 1050
1 1051
1 1052
1 1053
1 1054
1 1055
1 1056
1 1057
1 1058
1 1059
1 1060
1 1061
1 1062
1 1063
1 1064
1 1065
1 1066
1 1067
1 1068
1 1069
1 1070
1 1071
1 1072
1 1073
1 1074
1 1075
1 1076
1 1077
1 1078
1 1079
1 1080
1 1081
1 1082
1 1083
1 1084
1 1085
1 1086
1 1087
1 1088
1 1089
1 1090
1 1091
1 1092
1 1093
1 1094
1 1095
1 1096
1 1097
1 1098
1 1099
1 1100
1 1101
1 1102
1 1103
1 1104
1 1105
1 1106
1 1107
1 1108
1 1109
1 1110
1 1111
1 1112
1 1113
1 1114
1 1115
1 1116
1 1117
1 1118
1 1119
1 1120
1 1121
1 1122
1 1123
1 1124
1 1125
1 1126
1 1127
1 1128
1 1129
1 1130
1 1131
1 1132
1 1133
1 1134
1 1135
1 1136
1 1137
1 1138
1 1139
1 1140
1 1141
1 1142
1 1143
1 1144
1 1145
1 1146
1 1147
1 1148
1 1149
1 1150
1 1151
1 1152
1 1153
1 1154
1 1155
1 1156
1 1157
1 1158
1 1159
1 1160
1 1161
1 1162
1 1163
1 1164
1 1165
1 1166
1 1167
1 1168
1 1169
1 1170
1 1171
1 1172
1 1173
1 1174
1 1175
1 1176
1 1177
1 1178
1 1179
1 1180
1 1181
1 1182
1 1183
1 1184
1 1185
1 1186
1 1187
1 1188
1 1189
1 1190
1 1191
1 1192
1 1193
1 1194
1 1195
1 1196
1 1197
1 1198
1 1199
1 1200
1 1201
1 1202
1 1203
1 1204
1 1205
1 1206
1 1207
1 1208
1 1209
1 1210
1 1211
1 1212
1 1213
1 1214
1 1215
1 1216
1 1217
1 1218
1 1219
1 1220
1 1221
1 1222
1 1223
1 1224
1 1225
1 1226
1 1227
1 1228
1 1229
1 1230
1 1231
1 1232
1 1233
1 1234
1 1235
1 1236
1 1237
1 1238
1 1239
1 1240
1 1241
1 1242
1 1243
1 1244
1 1245
1 1246
1 1247
1 1248
1 1249
1 1250
1 1251
1 1252
1 1253
1 1254
1 1255
1 1256
1 1257
1 1258
1 1259
1 1260
1 1261
1 1262
1 1263
1 1264
1 1265
1 1266
1 1267
1 1268
1 1269
1 1270
1 1271
1 1272
1 1273
1 1274
1 1275
1 1276
1 1277
1 1278
1 1279
1 1280
1 1281
1 1282
1 1283
1 1284
1 1285
1 1286
1 1287
1 1288
1 1289
1 1290
1 1291
1 1292
1 1293
1 1294
1 1295
1 1296
1 1297
1 1298
1 1299
1 1300
1 1301
1 1302
1 1303
1 1304
1 1305
1 1306
1 1307
1 1308
1 1309
1 1310
1 1311
1 1312
1 1313
1 1314
1 1315
1 1316
1 1317
1 1318
1 1319
1 1320
1 1321
1 1322
1 1323
1 1324
1 1325
1 1326
1 1327
1 1328
1 1329
1 1330
1 1331
1 1332
1 1333
1 1334
1 1335
1 1336
1 1337
1 1338
1 1339
1 1340
1 1341
1 1342
1 1343
1 1344
1 1345
1 1346
1 1347
1 1348
1 1349
1 1350
1 1351
1 1352
1 1353
1 1354
1 1355
1 1356
1 1357
1 1358
1 1359
1 1360
1 1361
1 1362
1 1363
1 1364
1 1365
1 1366
1 1367
1 1368
1 1369
1 1370
1 1371
1 1372
1 1373
1 1374
1 1375
1 1376
1 1377
1 1378
1 1379
1 1380
1 1381
1 1382
1 1383
1 1384
1 1385
1 1386
1 1387
1 1388
1 1389
1 1390
1 1391
1 1392
1 1393
1 1394
1 1395
1 1396
1 1397
1 1398
1 1399
1 1400
1 1401
1 1402
1 1403
1 1404
1 1405
1 1406
1 1407
1 1408
1 1409
1 1410
1 1411
1 1412
1 1413
1 1414
1 1415
1 1416
1 1417
1 1418
1 1419
1 1420
1 1421
1 1422
1 1423
1 1424
1 1425
1 1426
1 1427
1 1428
1 1429
1 1430
1 1431
1 1432
1 1433
1 1434
1 1435
1 1436
1 1437
1 1438
1 1439
1 1440
1 1441
1 1442
1 1443
1 1444
1 1445
1 1446
1 1447
1 1448
1 1449
1 1450
1 1451
1 1452
1 1453
1 1454
1 1455
1 1456
1 1457
1 1458
1 1459
1 1460
1 1461
1 1462
1 1463
1 1464
1 1465
1 1466
1 1467
1 1468
1 1469
1 1470
1 1471
1 1472
1 1473
1 1474
1 1475
1 1476
1 1477
1 1478
1 1479
1 1480
1 1481
1 1482
1 1483
1 1484
1 1485
1 1486
1 1487
1 1488
1 1489
1 1490
1 1491
1 1492
1 1493
1 1494
1 1495
1 1496
1 1497
1 1498
1 1499
1 1500
1 1501
1 1502
1 1503
1 1504
1 1505
1 1506
1 1507
1 1508
1 1509
1 1510
1 1511
1 1512
1 1513
1 1514
1 1515
1 1516
1 1517
1 1518
1 1519
1 1520
1 1521
1 1522
1 1523
1 1524
1 1525
1 1526
1 1527
1 1528
1 1529
1 1530
1 1531
1 1532
1 1533
1 1534
1 1535
1 1536
1 1537
1 1538
1 1539
1 1540
1 1541
1 1542
1 1543
1 1544
1 1545
1 1546
1 1547
1 1548
1 1549
1 1550
1 1551
1 1552
1 1553
1 1554
1 1555
1 1556
1 1557
1 1558
1 1559
1 1560
1 1561
1 1562
1 1563
1 1564
1 1565
1 1566
1 1567
1 1568
1 1569
1 1570
1 1571
1 1572
1 1573
1 1574
1 1575
1 1576
1 1577
1 1578
1 1579
1 1580
1 1581
1 1582
1 1583
1 1584
1 1585
1 1586
1 1587
1 1588
1 1589
1 1590
1 1591
1 1592
1 1593
1 1594
1 1595
1 1596
1 1597
1 1598
1 1599
1 1600
1 1601
1 1602
1 1603
1 1604
1 1605
1 1606
1 1607
1 1608
1 1609
1 1610
1 1611
1 1612
1 1613
1 1614
1 1615
1 1616
1 1617
1 1618
1 1619
1 1620
1 1621
1 1622
1 1623
1 1624
1 1625
1 1626
1 1627
1 1628
1 1629
1 1630
1 1631
1 1632
1 1633
1 1634
1 1635
1 1636
1 1637
1 1638
1 1639
1 1640
1 1641
1 1642
1 1643
1 1644
1 1645
1 1646
1 1647
1 1648
1 1649
1 1650
1 1651
1 1652
1 1653
1 1654
1 1655
1 1656
1 1657
1 1658
1 1659
1 1660
1 1661
1 1662
1 1663
1 1664
1 1665
1 1666
1 1667
1 1668
1 1669
1 1670
1 1671
1 1672
1 1673
1 1674
1 1675
1 1676
1 1677
1 1678
1 1679
1 1680
1 1681
1 1682
1 1683
1 1684
1 1685
1 1686
1 1687
1 1688
1 1689
1 1690
1 1691
1 1692
1 1693
1 1694
1 1695
1 1696
1 1697
1 1698
1 1699
1 1700
1 1701
1 1702
1 1703
1 1704
1 1705
1 1706
1 1707
1 1708
1 1709
1 1710
1 1711
1 1712
1 1713
1 1714
1 1715
1 1716
1 1717
1 1718
1 1719
1 1720
1 1721
1 1722
1 1723
1 1724
1 1725
1 1726
1 1727
1 1728
1 1729
1 1730
1 1731
1 1732
1 1733
1 1734
1 1735
1 1736
1 1737
1 1738
1 1739
1 1740
1 1741
1 1742
1 1743
1 1744
1 1745
1 1746
1 1747
1 1748
1 1749
1 1750
1 1751
1 1752
1 1753
1 1754
1 1755
1 1756
1 1757
1 1758
1 1759
1 1760
1 1761
1 1762
1 1763
1 1764
1 1765
1 1766
1 1767
1 1768
1 1769
1 1770
1 1771
1 1772
1 1773
1 1774
1 1775
1 1776
1 1777
1 1778
1 1779
1 1780
1 1781
1 1782
1 1783
1 1784
1 1785
1 1786
1 1787
1 1788
1 1789
1 1790
1 1791
1 1792
1 1793
1 1794
1 1795
1 1796
1 1797
1 1798
1 1799
1 1800
1 1801
1 1802
1 1803
1 1804
1 1805
1 1806
1 1807
1 1808
1 1809
1 1810
1 1811
1 1812
1 1813
1 1814
1 1815
1 1816
1 1817
1 1818
1 1819
1 1820
1 1821
1 1822
1 1823
1 1824
1 1825
1 1826
1 1827
1 1828
1 1829
1 1830
1 1831
1 1832
1 1833
1 1834
1 1835
1 1836
1 1837
1 1838
1 1839
1 1840
1 1841
1 1842
1 1843
1 1844
1 1845
1 1846
1 1847
1 1848
1 1849
1 1850
1 1851
1 1852
1 1853
1 1854
1 1855
1 1856
1 1857
1 1858
1 1859
1 1860
1 1861
1 1862
1 1863
1 1864
1 1865
1 1866
1 1867
1 1868
1 1869
1 1870
1 1871
1 1872
1 1873
1 1874
1 1875
1 1876
1 1877
1 1878
1 1879
1 1880
1 1881
1 1882
1 1883
1 1884
1 1885
1 1886
1 1887
1 1888
1 1889
1 1890
1 1891
1 1892
1 1893
1 1894
1 1895
1 1896
1 1897
1 1898
1 1899
1 1900
1 1901
1 1902
1 1903
1 1904
1 1905
1 1906
1 1907
1 1908
1 1909
1 1910
1 1911
1 1912
1 1913
1 1914
1 1915
1 1916
1 1917
1 1918
1 1919
1 1920
1 1921
1 1922
1 1923
1 1924
1 1925
1 1926
1 1927
1 1928
1 1929
1 1930
1 1931
1 1932
1 1933
1 1934
1 1935
1 1936
1 1937
1 1938
1 1939
1 1940
1 1941
1 1942
1 1943
1 1944
1 1945
1 1946
1 1947
1 1948
1 1949
1 1950
1 1951
1 1952
1 1953
1 1954
1 1955
1 1956
1 1957
1 1958
1 1959
1 1960
1 1961
1 1962
1 1963
1 1964
1 1965
1 1966
1 1967
1 1968
1 1969
1 1970
1 1971
1 1972
1 1973
1 1974
1 1975
1 1976
1 1977
1 1978
1 1979
1 1980
1 1981
1 1982
1 1983
1 1984
1 1985
1 1986
1 1987
1 1988
1 1989
1 1990
1 1991
1 1992
1 1993
1 1994
1 1995
1 1996
1 1997
1 1998
1 1999
1 2000
1 2001
1 2002
1 2003
1 2004
1 2005
1 2006
1 2007
1 2008
1 2009
1 2010
1 2011
1 2012
1 2013
1 2014
1 2015
1 2016
1 2017
1 2018
1 2019
1 2020
1 2021
1 2022
1 2023
1 2024
1 2025
1 2026
1 2027
1 2028
1 2029
1 2030
1 2031
1 2032
1 2033
1 2034
1 2035
1 2036
1 2037
1 2038
1 2039
1 2040
1 2041
1 2042
1 2043
1 2044
1 2045
1 2046
1 2047
1 2048
1 2049
1 2050
1 2051
1 2052
1 2053
1 2054
1 2055
1 2056
1 2057
1 2058
1 2059
1 2060
1 2061
1 2062
1 2063
1 2064
1 2065
1 2066
1 2067
1 2068
1 2069
1 2070
1 2071
1 2072
1 2073
1 2074
1 2075
1 2076
1 2077
1 2078
1 2079
1 2080
1 2081
1 2082
1 2083
1 2084
1 2085
1 2086
1 2087
1 2088
1 2089
1 2090
1 2091
1 2092
1 2093
1 2094
1 2095
1 2096
1 2097
1 2098
1 2099
1 2100
1 2101
1 2102
1 2103
1 2104
1 2105
1 2106
1 2107
1 2108
1 2109
1 2110
1 2111
1 2112
1 2113
1 2114
1 2115
1 2116
1 2117
1 2118
1 2119
1 2120
1 2121
1 2122
1 2123
1 2124
1 2125
1 2126
1 2127
1 2128
1 2129
1 2130
1 2131
1 2132
1 2133
1 2134
1 2135
1 2136
1 2137
1 2138
1 2139
1 2140
1 2141
1 2142
1 2143
1 2144
1 2145
1 2146
1 2147
1 2148
1 2149
1 2150
1 2151
1 2152
1 2153
1 2154
1 2155
1 2156
1 2157
1 2158
1 2159
1 2160
1 2161
1 2162
1 2163
1 2164
1 2165
1 2166
1 2167
1 2168
1 2169
1 2170
1 2171
1 2172
1 2173
1 2174
1 2175
1 2176
1 2177
1 2178
1 2179
1 2180
1 2181
1 2182
1 2183
1 2184
1 2185
1 2186
1 2187
1 2188
1 2189
1 2190
1 2191
1 2192
1 2193
1 2194
1 2195
1 2196
1 2197
1 2198
1 2199
1 2200
1 2201
1 2202
1 2203
1 2204
1 2205
1 2206
1 2207
1 2208
1 2209
1 2210
1 2211
1 2212
1 2213
1 2214
1 2215
1 2216
1 2217
1 2218
1 2219
1 2220
1 2221
1 2222
1 2223
1 2224
1 2225
1 2226
1 2227
1 2228
1 2229
1 2230
1 2231
1 2232
1 2233
1 2234
1 2235
1 2236
1 2237
1 2238
1 2239
1 2240
1 2241
1 2242
1 2243
1 2244
1 2245
1 2246
1 2247
1 2248
1 2249
1 2250
1 2251
1 2252
1 2253
1 2254
1 2255
1 2256
1 2257
1 2258
1 2259
1 2260
1 2261
1 2262
1 2263
1 2264
1 2265
1 2266
1 2267
1 2268
1 2269
1 2270
1 2271
1 2272
1 2273
1 2274
1 2275
1 2276
1 2277
1 2278
1 2279
1 2280
1 2281
1 2282
1 2283
1 2284
1 2285
1 2286
1 2287
1 2288
1 2289
1 2290
1 2291
1 2292
1 2293
1 2294
1 2295
1 2296
1 2297
1 2298
1 2299
1 2300
1 2301
1 2302
1 2303
1 2304
1 2305
1 2306
1 2307
1 2308
1 2309
1 2310
1 2311
1 2312
1 2313
1 2314
1 2315
1 2316
1 2317
1 2318
1 2319
1 2320
1 2321
1 2322
1 2323
1 2324
1 2325
1 2326
1 2327
1 2328
1 2329
1 2330
1 2331
1 2332
1 2333
1 2334
1 2335
1 2336
1 2337
1 2338
1 2339
1 2340
1 2341
1 2342
1 2343
1 2344
1 2345
1 2346
1 2347
1 2348
1 2349
1 2350
1 2351
1 2352
1 2353
1 2354
1 2355
1 2356
1 2357
1 2358
1 2359
1 2360
1 2361
1 2362
1 2363
1 2364
1 2365
1 2366
1 2367
1 2368
1 2369
1 2370
1 2371
1 2372
1 2373
1 2374
1 2375
1 2376
1 2377
1 2378
1 2379
1 2380
1 2381
1 2382
1 2383
1 2384
1 2385
1 2386
1 2387
1 2388
1 2389
1 2390
1 2391
1 2392
1 2393
1 2394
1 2395
1 2396
1 2397
1 2398
1 2399
1 2400
1 2401
1 2402
1 2403
1 2404
1 2405
1 2406
1 2407
1 2408
1 2409
1 2410
1 2411
1 2412
1 2413
1 2414
1 2415
1 2416
1 2417
1 2418
1 2419
1 2420
1 2421
1 2422
1 2423
1 2424
1 2425
1 2426
1 2427
1 2428
1 2429
1 2430
1 2431
1 2432
1 2433
1 2434
1 2435
1 2436
1 2437
1 2438
1 2439
1 2440
1 2441
1 2442
1 2443
1 2444
1 2445
1 2446
1 2447
1 2448
1 2449
1 2450
1 2451
1 2452
1 2453
1 2454
1 2455
1 2456
1 2457
1 2458
1 2459
1 2460
1 2461
1 2462
1 2463
1 2464
1 2465
1 2466
1 2467
1 2468
1 2469
1 2470
1 2471
1 2472
1 2473
1 2474
1 2475
1 2476
1 2477
1 2478
1 2479
1 2480
1 2481
1 2482
1 2483
1 2484
1 2485
1 2486
1 2487
1 2488
1 2489
1 2490
1 2491
1 2492
1 2493
1 2494
1 2495
1 2496
1 2497
1 2498
1 2499
1 2500
1 2501
1 2502
1 2503
1 2504
1 2505
1 2506
1 2507
1 2508
1 2509
1 2510
1 2511
1 2512
1 2513
1 2514
1 2515
1 2516
1 2517
1 2518
1 2519
1 2520
1 2521
1 2522
1 2523
1 2524
1 2525
1 2526
1 2527
1 2528
1 2529
1 2530
1 2531
1 2532
1 2533
1 2534
1 2535
1 2536
1 2537
1 2538
1 2539
1 2540
1 2541
1 2542
1 2543
1 2544
1 2545
1 2546
1 2547
1 2548
1 2549
1 2550
1 2551
1 2552
1 2553
1 2554
1 2555
1 2556
1 2557
1 2558
1 2559
1 2560
1 2561
1 2562
1 2563
1 2564
1 2565
1 2566
1 2567
1 2568
1 2569
1 2570
1 2571
1 2572
1 2573
1 2574
1 2575
1 2576
1 2577
1 2578
1 2579
1 2580
1 2581
1 2582
1 2583
1 2584
1 2585
1 2586
1 2587
1 2588
1 2589
1 2590
1 2591
1 2592
1 2593
1 2594
1 2595
1 2596
1 2597
1 2598
1 2599
1 2600
1 2601
1 2602
1 2603
1 2604
1 2605
1 2606
1 2607
1 2608
1 2609
1 2610
1 2611
1 2612
1 2613
1 2614
1 2615
1 2616
1 2617
1 2618
1 2619
1 2620
1 2621
1 2622
1 2623
1 2624
1 2625
1 2626
1 2627
1 2628
1 2629
1 2630
1 2631
1 2632
1 2633
1 2634
1 2635
1 2636
1 2637
1 2638
1 2639
1 2640
1 2641
1 2642
1 2643
1 2644
1 2645
1 2646
1 2647
1 2648
1 2649
1 2650
1 2651
1 2652
1 2653
1 2654
1 2655
1 2656
1 2657
1 2658
1 2659
1 2660
1 2661
1 2662
1 2663
1 2664
1 2665
1 2666
1 2667
1 2668
1 2669
1 2670
1 2671
1 2672
1 2673
1 2674
1 2675
1 2676
1 2677
1 2678
1 2679
1 2680
1 2681
1 2682
1 2683
1 2684
1 2685
1 2686
1 2687
1 2688
1 2689
1 2690
1 2691
1 2692
1 2693
1 2694
1 2695
1 2696
1 2697
1 2698
1 2699
1 2700
1 2701
1 2702
1 2703
1 2704
1 2705
1 2706
1 2707
1 2708
1 2709
1 2710
1 2711
1 2712
1 2713
1 2714
1 2715
1 2716
1 2717
1 2718
1 2719
1 2720
1 2721
1 2722
1 2723
1 2724
1 2725
1 2726
1 2727
1 2728
1 2729
1 2730
1 2731
1 2732
1 2733
1 2734
1 2735
1 2736
1 2737
1 2738
1 2739
1 2740
1 2741
1 2742
1 2743
1 2744
1 2745
1 2746
1 2747
1 2748
1 2749
1 2750
1 2751
1 2752
1 2753
1 2754
1 2755
1 2756
1 2757
1 2758
1 2759
1 2760
1 2761
1 2762
1 2763
1 2764
1 2765
1 2766
1 2767
1 2768
1 2769
1 2770
1 2771
1 2772
1 2773
1 2774
1 2775
1 2776
1 2777
1 2778
1 2779
1 2780
1 2781
1 2782
1 2783
1 2784
1 2785
1 2786
1 2787
1 2788
1 2789
1 2790
1 2791
1 2792
1 2793
1 2794
1 2795
1 2796
1 2797
1 2798
1 2799
1 2800
1 2801
1 2802
1 2803
1 2804
1 2805
1 2806
1 2807
1 2808
1 2809
1 2810
1 2811
1 2812
1 2813
1 2814
1 2815
1 2816
1 2817
1 2818
1 2819
1 2820
1 2821
1 2822
1 2823
1 2824
1 2825
1 2826
1 2827
1 2828
1 2829
1 2830
1 2831
1 2832
1 2833
1 2834
1 2835
1 2836
1 2837
1 2838
1 2839
1 2840
1 2841
1 2842
1 2843
1 2844
1 2845
1 2846
1 2847
1 2848
1 2849
1 2850
1 2851
1 2852
1 2853
1 2854
1 2855
1 2856
1 2857
1 2858
1 2859
1 2860
1 2861
1 2862
1 2863
1 2864
1 2865
1 2866
1 2867
1 2868
1 2869
1 2870
1 2871
1 2872
1 2873
1 2874
1 2875
1 2876
1 2877
1 2878
1 2879
1 2880
1 2881
1 2882
1 2883
1 2884
1 2885
1 2886
1 2887
1 2888
1 2889
1 2890
1 2891
1 2892
1 2893
1 2894
1 2895
1 2896
1 2897
1 2898
1 2899
1 2900
1 2901
1 2902
1 2903
1 2904
1 2905
1 2906
1 2907
1 2908
1 2909
1 2910
1 2911
1 2912
1 2913
1 2914
1 2915
1 2916
1 2917
1 2918
1 2919
1 2920
1 2921
1 2922
1 2923
1 2924
1 2925
1 2926
1 2927
1 2928
1 2929
1 2930
1 2931
1 2932
1 2933
1 2934
1 2935
1 2936
1 2937
1 2938
1 2939
1 2940
1 2941
1 2942
1 2943
1 2944
1 2945
1 2946
1 2947
1 2948
1 2949
1 2950
1 2951
1 2952
1 2953
1 2954
1 2955
1 2956
1 2957
1 2958
1 2959
1 2960
1 2961
1 2962
1 2963
1 2964
1 2965
1 2966
1 2967
1 2968
1 2969
1 2970
1 2971
1 2972
1 2973
1 2974
1 2975
1 2976
1 2977
1 2978
1 2979
1 2980
1 2981
1 2982
1 2983
1 2984
1 2985
1 2986
1 2987
1 2988
1 2989
1 2990
1 2991
1 2992
1 2993
1 2994
1 2995
1 2996
1 2997
1 2998
1 2999
1 3000
1 3001
1 3002
1 3003
1 3004
1 3005
1 3006
1 3007
1 3008
1 3009
1 3010
1 3011
1 3012
1 3013
1 3014
1 3015
1 3016
1 3017
1 3018
1 3019
1 3020
1 3021
1 3022
1 3023
1 3024
1 3025
1 3026
1 3027
1 3028
1 3029
1 3030
1 3031
1 3032
1 3033
1 3034
1 3035
1 3036
1 3037
1 3038
1 3039
1 3040
1 3041
1 3042
1 3043
1 3044
1 3045
1 3046
1 3047
1 3048
1 3049
1 3050
1 3051
1 3052
1 3053
1 3054
1 3055
1 3056
1 3057
1 3058
1 3059
1 3060
1 3061
1 3062
1 3063
1 3064
1 3065
1 3066
1 3067
1 3068
1 3069
1 3070
1 3071
1 3072
1 3073
1 3074
1 3075
1 3076
1 3077
1 3078
1 3079
1 3080
1 3081
1 3082
1 3083
1 3084
1 3085
1 3086
1 3087
1 3088
1 3089
1 3090
1 3091
1 3092
1 3093
1 3094
1 3095
1 3096
1 3097
1 3098
1 3099
1 3100
1 3101
1 3102
1 3103
1 3104
1 3105
1 3106
1 3107
1 3108
1 3109
1 3110
1 3111
1 3112
1 3113
1 3114
1 3115
1 3116
1 3117
1 3118
1 3119
1 3120
1 3121
1 3122
1 3123
1 3124
1 3125
1 3126
1 3127
1 3128
1 3129
1 3130
1 3131
1 3132
1 3133
1 3134
1 3135
1 3136
1 3137
1 3138
1 3139
1 3140
1 3141
1 3142
1 3143
1 3144
1 3145
1 3146
1 3147
1 3148
1 3149
1 3150
1 3151
1 3152
1 3153
1 3154
1 3155
1 3156
1 3157
1 3158
1 3159
1 3160
1 3161
1 3162
1 3163
1 3164
1 3165
1 3166
1 3167
1 3168
1 3169
1 3170
1 3171
1 3172
1 3173
1 3174
1 3175
1 3176
1 3177
1 3178
1 3179
1 3180
1 3181
1 3182
1 3183
1 3184
1 3185
1 3186
1 3187
1 3188
1 3189
1 3190
1 3191
1 3192
1 3193
1 3194
1 3195
1 3196
1 3197
1 3198
1 3199
1 3200
1 3201
1 3202
1 3203
1 3204
1 3205
1 3206
1 3207
1 3208
1 3209
1 3210
1 3211
1 3212
1 3213
1 3214
1 3215
1 3216
1 3217
1 3218
1 3219
1 3220
1 3221
1 3222
1 3223
1 3224
1 3225
1 3226
1 3227
1 3228
1 3229
1 3230
1 3231
1 3232
1 3233
1 3234
1 3235
1 3236
1 3237
1 3238
1 3239
1 3240
1 3241
1 3242
1 3243
1 3244
1 3245
1 3246
1 3247
1 3248
1 3249
1 3250
1 3251
1 3252
1 3253
1 3254
1 3255
1 3256
1 3257
1 3258
1 3259
1 3260
1 3261
1 3262
1 3263
1 3264
1 3265
1 3266
1 3267
1 3268
1 3269
1 3270
1 3271
1 3272
1 3273
1 3274
1 3275
1 3276
1 3277
1 3278
1 3279
1 3280
1 3281
1 3282
1 3283
1 3284
1 3285
1 3286
1 3287
1 3288
1 3289
1 3290
1 3291
1 3292
1 3293
1 3294
1 3295
1 3296
1 3297
1 3298
1 3299
1 3300
1 3301
1 3302
1 3303
1 3304
1 3305
1 3306
1 3307
1 3308
1 3309
1 3310
1 3311
1 3312
1 3313
1 3314
1 3315
1 3316
1 3317
1 3318
1 3319
1 3320
1 3321
1 3322
1 3323
1 3324
1 3325
1 3326
1 3327
1 3328
1 3329
1 3330
1 3331
1 3332
1 3333
1 3334
1 3335
1 3336
1 3337
1 3338
1 3339
1 3340
1 3341
1 3342
1 3343
1 3344
1 3345
1 3346
1 3347
1 3348
1 3349
1 3350
1 3351
1 3352
1 3353
1 3354
1 3355
1 3356
1 3357
1 3358
1 3359
1 3360
1 3361
1 3362
1 3363
1 3364
1 3365
1 3366
1 3367
1 3368
1 3369
1 3370
1 3371
1 3372
1 3373
1 3374
1 3375
1 3376
1 3377
1 3378
1 3379
1 3380
1 3381
1 3382
1 3383
1 3384
1 3385
1 3386
1 3387
1 3388
1 3389
1 3390
1 3391
1 3392
1 3393
1 3394
1 3395
1 3396
1 3397
1 3398
1 3399
1 3400
1 3401
1 3402
1 3403
1 3404
1 3405
1 3406
1 3407
1 3408
1 3409
1 3410
1 3411
1 3412
1 3413
1 3414
1 3415
1 3416
1 3417
1 3418
1 3419
1 3420
1 3421
1 3422
1 3423
1 3424
1 3425
1 3426
1 3427
1 3428
1 3429
1 3430
1 3431
1 3432
1 3433
1 3434
1 3435
1 3436
1 3437
1 3438
1 3439
1 3440
1 3441
1 3442
1 3443
1 3444
1 3445
1 3446
1 3447
1 3448
1 3449
1 3450
1 3451
1 3452
1 3453
1 3454
1 3455
1 3456
1 3457
1 3458
1 3459
1 3460
1 3461
1 3462
1 3463
1 3464
1 3465
1 3466
1 3467
1 3468
1 3469
1 3470
1 3471
1 3472
1 3473
1 3474
1 3475
1 3476
1 3477
1 3478
1 3479
1 3480
1 3481
1 3482
1 3483
1 3484
1 3485
1 3486
1 3487
1 3488
1 3489
1 3490
1 3491
1 3492
1 3493
1 3494
1 3495
1 3496
1 3497
1 3498
1 3499
1 3500
1 3501
1 3502
1 3503
1 3504
1 3505
1 3506
1 3507
1 3508
1 3509
1 3510
1 3511
1 3512
1 3513
1 3514
1 3515
1 3516
1 3517
1 3518
1 3519
1 3520
1 3521
1 3522
1 3523
1 3524
1 3525
1 3526
1 3527
1 3528
1 3529
1 3530
1 3531
1 3532
1 3533
1 3534
1 3535
1 3536
1 3537
1 3538
1 3539
1 3540
1 3541
1 3542
1 3543
1 3544
1 3545
1 3546
1 3547
1 3548
1 3549
1 3550
1 3551
1 3552
1 3553
1 3554
1 3555
1 3556
1 3557
1 3558
1 3559
1 3560
1 3561
1 3562
1 3563
1 3564
1 3565
1 3566
1 3567
1 3568
1 3569
1 3570
1 3571
1 3572
1 3573
1 3574
1 3575
1 3576
1 3577
1 3578
1 3579
1 3580
1 3581
1 3582
1 3583
1 3584
1 3585
1 3586
1 3587
1 3588
1 3589
1 3590
1 3591
1 3592
1 3593
1 3594
1 3595
1 3596
1 3597
1 3598
1 3599
1 3600
1 3601
1 3602
1 3603
1 3604
1 3605
1 3606
1 3607
1 3608
1 3609
1 3610
1 3611
1 3612
1 3613
1 3614
1 3615
1 3616
1 3617
1 3618
1 3619
1 3620
1 3621
1 3622
1 3623
1 3624
1 3625
1 3626
1 3627
1 3628
1 3629
1 3630
1 3631
1 3632
1 3633
1 3634
1 3635
1 3636
1 3637
1 3638
1 3639
1 3640
1 3641
1 3642
1 3643
1 3644
1 3645
1 3646
1 3647
1 3648
1 3649
1 3650
1 3651
1 3652
1 3653
1 3654
1 3655
1 3656
1 3657
1 3658
1 3659
1 3660
1 3661
1 3662
1 3663
1 3664
1 3665
1 3666
1 3667
1 3668
1 3669
1 3670
1 3671
1 3672
1 3673
1 3674
1 3675
1 3676
1 3677
1 3678
1 3679
1 3680
1 3681
1 3682
1 3683
1 3684
1 3685
1 3686
1 3687
1 3688
1 3689
1 3690
1 3691
1 3692
1 3693
1 3694
1 3695
1 3696
1 3697
1 3698
1 3699
1 3700
1 3701
1 3702
1 3703
1 3704
1 3705
1 3706
1 3707
1 3708
1 3709
1 3710
1 3711
1 3712
1 3713
1 3714
1 3715
1 3716
1 3717
1 3718
1 3719
1 3720
1 3721
1 3722
1 3723
1 3724
1 3725
1 3726
1 3727
1 3728
1 3729
1 3730
1 3731
1 3732
1 3733
1 3734
1 3735
1 3736
1 3737
1 3738
1 3739
1 3740
1 3741
1 3742
1 3743
1 3744
1 3745
1 3746
1 3747
1 3748
1 3749
1 3750
1 3751
1 3752
1 3753
1 3754
1 3755
1 3756
1 3757
1 3758
1 3759
1 3760
1 3761
1 3762
1 3763
1 3764
1 3765
1 3766
1 3767
1 3768
1 3769
1 3770
1 3771
1 3772
1 3773
1 3774
1 3775
1 3776
1 3777
1 3778
1 3779
1 3780
1 3781
1 3782
1 3783
1 3784
1 3785
1 3786
1 3787
1 3788
1 3789
1 3790
1 3791
1 3792
1 3793
1 3794
1 3795
1 3796
1 3797
1 3798
1 3799
1 3800
1 3801
1 3802
1 3803
1 3804
1 3805
1 3806
1 3807
1 3808
1 3809
1 3810
1 3811
1 3812
1 3813
1 3814
1 3815
1 3816
1 3817
1 3818
1 3819
1 3820
1 3821
1 3822
1 3823
1 3824
1 3825
1 3826
1 3827
1 3828
1 3829
1 3830
1 3831
1 3832
1 3833
1 3834
1 3835
1 3836
1 3837
1 3838
1 3839
1 3840
1 3841
1 3842
1 3843
1 3844
1 3845
1 3846
1 3847
1 3848
1 3849
1 3850
1 3851
1 3852
1 3853
1 3854
1 3855
1 3856
1 3857
1 3858
1 3859
1 3860
1 3861
1 3862
1 3863
1 3864
1 3865
1 3866
1 3867
1 3868
1 3869
1 3870
1 3871
1 3872
1 3873
1 3874
1 3875
1 3876
1 3877
1 3878
1 3879
1 3880
1 3881
1 3882
1 3883
1 3884
1 3885
1 3886
1 3887
1 3888
1 3889
1 3890
1 3891
1 3892
1 3893
1 3894
1 3895
1 3896
1 3897
1 3898
1 3899
1 3900
1 3901
1 3902
1 3903
1 3904
1 3905
1 3906
1 3907
1 3908
1 3909
1 3910
1 3911
1 3912
1 3913
1 3914
1 3915
1 3916
1 3917
1 3918
1 3919
1 3920
1 3921
1 3922
1 3923
1 3924
1 3925
1 3926
1 3927
1 3928
1 3929
1 3930
1 3931
1 3932
1 3933
1 3934
1 3935
1 3936
1 3937
1 3938
1 3939
1 3940
1 3941
1 3942
1 3943
1 3944
1 3945
1 3946
1 3947
1 3948
1 3949
1 3950
1 3951
1 3952
1 3953
1 3954
1 3955
1 3956
1 3957
1 3958
1 3959
1 3960
1 3961
1 3962
1 3963
1 3964
1 3965
1 3966
1 3967
1 3968
1 3969
1 3970
1 3971
1 3972
1 3973
1 3974
1 3975
1 3976
1 3977
1 3978
1 3979
1 3980
1 3981
1 3982
1 3983
1 3984
1 3985
1 3986
1 3987
1 3988
1 3989
1 3990
1 3991
1 3992
1 3993
1 3994
1 3995
1 3996
1 3997
1 3998
1 3999
1 4000
1 4001
1 4002
1 4003
1 4004
1 4005
1 4006
1 4007
1 4008
1 4009
1 4010
1 4011
1 4012
1 4013
1 4014
1 4015
1 4016
1 4017
1 4018
1 4019
1 4020
1 4021
1 4022
1 4023
1 4024
1 4025
1 4026
1 4027
1 4028
1 4029
1 4030
1 4031
1 4032
1 4033
1 4034
1 4035
1 4036
1 4037
1 4038
1 4039
1 4040
1 4041
1 4042
1 4043
1 4044
1 4045
1 4046
1 4047
1 4048
1 4049
1 4050
1 4051
1 4052
1 4053
1 4054
1 4055
1 4056
1 4057
1 4058
1 4059
1 4060
1 4061
1 4062
1 4063
1 4064
1 4065
1 4066
1 4067
1 4068
1 4069
1 4070
1 4071
1 4072
1 4073
1 4074
1 4075
1 4076
1 4077
1 4078
1 4079
1 4080
1 4081
1 4082
1 4083
1 4084
1 4085
1 4086
1 4087
1 4088
1 4089
1 4090
1 4091
1 4092
1 4093
1 4094
1 4095
1 4096
1 4097
1 4098
1 4099
1 4100
1 4101
1 4102
1 4103
1 4104
1 4105
1 4106
1 4107
1 4108
1 4109
1 4110
1 4111
1 4112
1 4113
1 4114
1 4115
1 4116
1 4117
1 4118
1 4119
1 4120
1 4121
1 4122
1 4123
1 4124
1 4125
1 4126
1 4127
1 4128
1 4129
1 4130
1 4131
1 4132
1 4133
1 4134
1 4135
1 4136
1 4137
1 4138
1 4139
1 4140
1 4141
1 4142
1 4143
1 4144
1 4145
1 4146
1 4147
1 4148
1 4149
1 4150
1 4151
1 4152
1 4153
1 4154
1 4155
1 4156
1 4157
1 4158
1 4159
1 4160
1 4161
1 4162
1 4163
1 4164
1 4165
1 4166
1 4167
1 4168
1 4169
1 4170
1 4171
1 4172
1 4173
1 4174
1 4175
1 4176
1 4177
1 4178
1 4179
1 4180
1 4181
1 4182
1 4183
1 4184
1 4185
1 4186
1 4187
1 4188
1 4189
1 4190
1 4191
1 4192
1 4193
1 4194
1 4195
1 4196
1 4197
1 4198
1 4199
1 4200
1 4201
1 4202
1 4203
1 4204
1 4205
1 4206
1 4207
1 4208
1 4209
1 4210
1 4211
1 4212
1 4213
1 4214
1 4215
1 4216
1 4217
1 4218
1 4219
1 4220
1 4221
1 4222
1 4223
1 4224
1 4225
1 4226
1 4227
1 4228
1 4229
1 4230
1 4231
1 4232
1 4233
1 4234
1 4235
1 4236
1 4237
1 4238
1 4239
1 4240
1 4241
1 4242
1 4243
1 4244
1 4245
1 4246
1 4247
1 4248
1 4249
1 4250
1 4251
1 4252
1 4253
1 4254
1 4255
1 4256
1 4257
1 4258
1 4259
1 4260
1 4261
1 4262
1 4263
1 4264
1 4265
1 4266
1 4267
1 4268
1 4269
1 4270
1 4271
1 4272
1 4273
1 4274
1 4275
1 4276
1 4277
1 4278
1 4279
1 4280
1 4281
1 4282
1 4283
1 4284
1 4285
1 4286
1 4287
1 4288
1 4289
1 4290
1 4291
1 4292
1 4293
1 4294
1 4295
1 4296
1 4297
1 4298
1 4299
1 4300
1 4301
1 4302
1 4303
1 4304
1 4305
1 4306
1 4307
1 4308
1 4309
1 4310
1 4311
1 4312
1 4313
1 4314
1 4315
1 4316
1 4317
1 4318
1 4319
1 4320
1 4321
1 4322
1 4323
1 4324
1 4325
1 4326
1 4327
1 4328
1 4329
1 4330
1 4331
1 4332
1 4333
1 4334
1 4335
1 4336
1 4337
1 4338
1 4339
1 4340
1 4341
1 4342
1 4343
1 4344
1 4345
1 4346
1 4347
1 4348
1 4349
1 4350
1 4351
1 4352
1 4353
1 4354
1 4355
1 4356
1 4357
1 4358
1 4359
1 4360
1 4361
1 4362
1 4363
1 4364
1 4365
1 4366
1 4367
1 4368
1 4369
1 4370
1 4371
1 4372
1 4373
1 4374
1 4375
1 4376
1 4377
1 4378
1 4379
1 4380
1 4381
1 4382
1 4383
1 4384
1 4385
1 4386
1 4387
1 4388
1 4389
1 4390
1 4391
1 4392
1 4393
1 4394
1 4395
1 4396
1 4397
1 4398
1 4399
1 4400
1 4401
1 4402
1 4403
1 4404
1 4405
1 4406
1 4407
1 4408
1 4409
1 4410
1 4411
1 4412
1 4413
1 4414
1 4415
1 4416
1 4417
1 4418
1 4419
1 4420
1 4421
1 4422
1 4423
1 4424
1 4425
1 4426
1 4427
1 4428
1 4429
1 4430
1 4431
1 4432
1 4433
1 4434
1 4435
1 4436
1 4437
1 4438
1 4439
1 4440
1 4441
1 4442
1 4443
1 4444
1 4445
1 4446
1 4447
1 4448
1 4449
1 4450
1 4451
1 4452
1 4453
1 4454
1 4455
1 4456
1 4457
1 4458
1 4459
1 4460
1 4461
1 4462
1 4463
1 4464
1 4465
1 4466
1 4467
1 4468
1 4469
1 4470
1 4471
1 4472
1 4473
1 4474
1 4475
1 4476
1 4477
1 4478
1 4479
1 4480
1 4481
1 4482
1 4483
1 4484
1 4485
1 4486
1 4487
1 4488
1 4489
1 4490
1 4491
1 4492
1 4493
1 4494
1 4495
1 4496
1 4497
1 4498
1 4499
1 4500
1 4501
1 4502
1 4503
1 4504
1 4505
1 4506
1 4507
1 4508
1 4509
1 4510
1 4511
1 4512
1 4513
1 4514
1 4515
1 4516
1 4517
1 4518
1 4519
1 4520
1 4521
1 4522
1 4523
1 4524
1 4525
1 4526
1 4527
1 4528
1 4529
1 4530
1 4531
1 4532
1 4533
1 4534
1 4535
1 4536
1 4537
1 4538
1 4539
1 4540
1 4541
1 4542
1 4543
1 4544
1 4545
1 4546
1 4547
1 4548
1 4549
1 4550
1 4551
1 4552
1 4553
1 4554
1 4555
1 4556
1 4557
1 4558
1 4559
1 4560
1 4561
1 4562
1 4563
1 4564
1 4565
1 4566
1 4567
1 4568
1 4569
1 4570
1 4571
1 4572
1 4573
1 4574
1 4575
1 4576
1 4577
1 4578
1 4579
1 4580
1 4581
1 4582
1 4583
1 4584
1 4585
1 4586
1 4587
1 4588
1 4589
1 4590
1 4591
1 4592
1 4593
1 4594
1 4595
1 4596
1 4597
1 4598
1 4599
1 4600
1 4601
1 4602
1 4603
1 4604
1 4605
1 4606
1 4607
1 4608
1 4609
1 4610
1 4611
1 4612
1 4613
1 4614
1 4615
1 4616
1 4617
1 4618
1 4619
1 4620
1 4621
1 4622
1 4623
1 4624
1 4625
1 4626
1 4627
1 4628
1 4629
1 4630
1 4631
1 4632
1 4633
1 4634
1 4635
1 4636
1 4637
1 4638
1 4639
1 4640
1 4641
1 4642
1 4643
1 4644
1 4645
1 4646
1 4647
1 4648
1 4649
1 4650
1 4651
1 4652
1 4653
1 4654
1 4655
1 4656
1 4657
1 4658
1 4659
1 4660
1 4661
1 4662
1 4663
1 4664
1 4665
1 4666
1 4667
1 4668
1 4669
1 4670
1 4671
1 4672
1 4673
1 4674
1 4675
1 4676
1 4677
1 4678
1 4679
1 4680
1 4681
1 4682
1 4683
1 4684
1 4685
1 4686
1 4687
1 4688
1 4689
1 4690
1 4691
1 4692
1 4693
1 4694
1 4695
1 4696
1 4697
1 4698
1 4699
1 4700
1 4701
1 4702
1 4703
1 4704
1 4705
1 4706
1 4707
1 4708
1 4709
1 4710
1 4711
1 4712
1 4713
1 4714
1 4715
1 4716
1 4717
1 4718
1 4719
1 4720
1 4721
1 4722
1 4723
1 4724
1 4725
1 4726
1 4727
1 4728
1 4729
1 4730
1 4731
1 4732
1 4733
1 4734
1 4735
1 4736
1 4737
1 4738
1 4739
1 4740
1 4741
1 4742
1 4743
1 4744
1 4745
1 4746
1 4747
1 4748
1 4749
1 4750
1 4751
1 4752
1 4753
1 4754
1 4755
1 4756
1 4757
1 4758
1 4759
1 4760
1 4761
1 4762
1 4763
1 4764
1 4765
1 4766
1 4767
1 4768
1 4769
1 4770
1 4771
1 4772
1 4773
1 4774
1 4775
1 4776
1 4777
1 4778
1 4779
1 4780
1 4781
1 4782
1 4783
1 4784
1 4785
1 4786
1 4787
1 4788
1 4789
1 4790
1 4791
1 4792
1 4793
1 4794
1 4795
1 4796
1 4797
1 4798
1 4799
1 4800
1 4801
1 4802
1 4803
1 4804
1 4805
1 4806
1 4807
1 4808
1 4809
1 4810
1 4811
1 4812
1 4813
1 4814
1 4815
1 4816
1 4817
1 4818
1 4819
1 4820
1 4821
1 4822
1 4823
1 4824
1 4825
1 4826
1 4827
1 4828
1 4829
1 4830
1 4831
1 4832
1 4833
1 4834
1 4835
1 4836
1 4837
1 4838
1 4839
1 4840
1 4841
1 4842
1 4843
1 4844
1 4845
1 4846
1 4847
1 4848
1 4849
1 4850
1 4851
1 4852
1 4853
1 4854
1 4855
1 4856
1 4857
1 4858
1 4859
1 4860
1 4861
1 4862
1 4863
1 4864
1 4865
1 4866
1 4867
1 4868
1 4869
1 4870
1 4871
1 4872
1 4873
1 4874
1 4875
1 4876
1 4877
1 4878
1 4879
1 4880
1 4881
1 4882
1 4883
1 4884
1 4885
1 4886
1 4887
1 4888
1 4889
1 4890
1 4891
1 4892
1 4893
1 4894
1 4895
1 4896
1 4897
1 4898
1 4899
1 4900
1 4901
1 4902
1 4903
1 4904
1 4905
1 4906
1 4907
1 4908
1 4909
1 4910
1 4911
1 4912
1 4913
1 4914
1 4915
1 4916
1 4917
1 4918
1 4919
1 4920
1 4921
1 4922
1 4923
1 4924
1 4925
1 4926
1 4927
1 4928
1 4929
1 4930
1 4931
1 4932
1 4933
1 4934
1 4935
1 4936
1 4937
1 4938
1 4939
1 4940
1 4941
1 4942
1 4943
1 4944
1 4945
1 4946
1 4947
1 4948
1 4949
1 4950
1 4951
1 4952
1 4953
1 4954
1 4955
1 4956
1 4957
1 4958
1 4959
1 4960
1 4961
1 4962
1 4963
1 4964
1 4965
1 4966
1 4967
1 4968
1 4969
1 4970
1 4971
1 4972
1 4973
1 4974
1 4975
1 4976
1 4977
1 4978
1 4979
1 4980
1 4981
1 4982
1 4983
1 4984
1 4985
1 4986
1 4987
1 4988
1 4989
1 4990
1 4991
1 4992
1 4993
1 4994
1 4995
1 4996
1 4997
1 4998
1 4999
CELL_TYPES 5000
1 
1 
1 
1 
1 
1 
1 
1 
1 
1 
1 
1 
1 
1 
1 
1 
1 
1 
1 
1 
1 
1 
1 
1 
1 
1 
1 
1 
1 
1 
1 
1 
1 
1 
1 
1 
1 
1 
1 
1 
1 
1 
1 
1 
1 
1 
1 
1 
1 
1 
1 
1 
1 
1 
1 
1 
1 
1 
1 
1 
1 
1 
1 
1 
1 
1 
1 
1 
1 
1 
1 
1 
1 
1 
1 
1 
1 
1 
1 
1 
1 
1 
1 
1 
1 
1 
1 
1 
1 
1 
1 
1 
1 
1 
1 
1 
1 
1 
1 
1 
1 
1 
1 
1 
1 
1 
1 
1 
1 
1 
1 
1 
1 
1 
1 
1 
1 
1 
1 
1 
1 
1 
1 
1 
1 
1 
1 
1 
1 
1 
1 
1 
1 
1 
1 
1 
1 
1 
1 
1 
1 
1 
1 
1 
1 
1 
1 
1 
1 
1 
1 
1 
1 
1 
1 
1 
1 
1 
1 
1 
1 
1 
1 
1 
1 
1 
1 
1 
1 
1 
1 
1 
1 
1 
1 
1 
1 
1 
1 
1 
1 
1 
1 
1 
1 
1 
1 
1 
1 
1 
1 
1 
1 
1 
1 
1 
1 
1 
1 
1 
1 
1 
1 
1 
1 
1 
1 
1 
1 
1 
1 
1 
1 
1 
1 
1 
1 
1 
1 
1 
1 
1 
1 
1 
1 
1 
1 
1 
1 
1 
1 
1 
1 
1 
1 
1 
1 
1 
1 
1 
1 
1 
1 
1 
1 
1 
1 
1 
1 
1 
1 
1 
1 
1 
1 
1 
1 
1 
1 
1 
1 
1 
1 
1 
1 
1 
1 
1 
1 
1 
1 
1 
1 
1 
1 
1 
1 
1 
1 
1 
1 
1 
1 
1 
1 
1 
1 
1 
1 
1 
1 
1 
1 
1 
1 
1 
1 
1 
1 
1 
1 
1 
1 
1 
1 
1 
1 
1 
1 
1 
1 
1 
1 
1 
1 
1 
1 
1 
1 
1 
1 
1 
1 
1 
1 
1 
1 
1 
1 
1 
1 
1 
1 
1 
1 
1 
1 
1 
1 
1 
1 
1 
1 
1 
1 
1 
1 
1 
1 
1 
1 
1 
1 
1 
1 
1 
1 
1 
1 
1 
1 
1 
1 
1 
1 
1 
1 
1 
1 
1 
1 
1 
1 
1 
1 
1 
1 
1 
1 
1 
1 
1 
1 
1 
1 
1 
1 
1 
1 
1 
1 
1 
1 
1 
1 
1 
1 
1 
1 
1 
1 
1 
1 
1 
1 
1 
1 
1 
1 
1 
1 
1 
1 
1 
1 
1 
1 
1 
1 
1 
1 
1 
1 
1 
1 
1 
1 
1 
1 
1 
1 
1 
1 
1 
1 
1 
1 
1 
1 
1 
1 
1 
1 
1 
1 
1 
1 
1 
1 
1 
1 
1 
1 
1 
1 
1 
1 
1 
1 
1 
1 
1 
1 
1 
1 
1 
1 
1 
1 
1 
1 
1 
1 
1 
1 
1 
1 
1 
1 
1 
1 
1 
1 
1 
1 
1 
1 
1 
1 
1 
1 
1 
1 
1 
1 
1 
1 
1 
1 
1 
1 
1 
1 
1 
1 
1 
1 
1 
1 
1 
1 
1 
1 
1 
1 
1 
1 
1 
1 
1 
1 
1 
1 
1 
1 
1 
1 
1 
1 
1 
1 
1 
1 
1 
1 
1 
1 
1 
1 
1 
1 
1 
1 
1 
1 
1 
1 
1 
1 
1 
1 
1 
1 
1 
1 
1 
1 
1 
1 
1 
1 
1 
1 
1 
1 
1 
1 
1 
1 
1 
1 
1 
1 
1 
1 
1 
1 
1 
1 
1 
1 
1 
1 
1 
1 
1 
1 
1 
1 
1 
1 
1 
1 
1 
1 
1 
1 
1 
1 
1 
1 
1 
1 
1 
1 
1 
1 
1 
1 
1 
1 
1 
1 
1 
1 
1 
1 
1 
1 
1 
1 
1 
1 
1 
1 
1 
1 
1 
1 
1 
1 
1 
1 
1 
1 
1 
1 
1 
1 
1 
1 
1 
1 
1 
1 
1 
1 
1 
1 
1 
1 
1 
1 
1 
1 
1 
1 
1 
1 
1 
1 
1 
1 
1 
1 
1 
1 
1 
1 
1 
1 
1 
1 
1 
1 
1 
1 
1 
1 
1 
1 
1 
1 
1 
1 
1 
1 
1 
1 
1 
1 
1 
1 
1 
1 
1 
1 
1 
1 
1 
1 
1 
1 
1 
1 
1 
1 
1 
1 
1 
1 
1 
1 
1 
1 
1 
1 
1 
1 
1 
1 
1 
1 
1 
1 
1 
1 
1 
1 
1 
1 
1 
1 
1 
1 
1 
1 
1 
1 
1 
1 
1 
1 
1 
1 
1 
1 
1 
1 
1 
1 
1 
1 
1 
1 
1 
1 
1 
1 
1 
1 
1 
1 
1 
1 
1 
1 
1 
1 
1 
1 
1 
1 
1 
1 
1 
1 
1 
1 
1 
1 
1 
1 
1 
1 
1 
1 
1 
1 
1 
1 
1 
1 
1 
1 
1 
1 
1 
1 
1 
1 
1 
1 
1 
1 
1 
1 
1 
1 
1 
1 
1 
1 
1 
1 
1 
1 
1 
1 
1 
1 
1 
1 
1 
1 
1 
1 
1 
1 
1 
1 
1 
1 
1 
1 
1 
1 
1 
1 
1 
1 
1 
1 
1 
1 
1 
1 
1 
1 
1 
1 
1 
1 
1 
1 
1 
1 
1 
1 
1 
1 
1 
1 
1 
1 
1 
1 
1 
1 
1 
1 
1 
1 
1 
1 
1 
1 
1 
1 
1 
1 
1 
1 
1 
1 
1 
1 
1 
1 
1 
1 
1 
1 
1 
1 
1 
1 
1 
1 
1 
1 
1 
1 
1 
1 
1 
1 
1 
1 
1 
1 
1 
1 
1 
1 
1 
1 
1 
1 
1 
1 
1 
1 
1 
1 
1 
1 
1 
1 
1 
1 
1 
1 
1 
1 
1 
1 
1 
1 
1 
1 
1 
1 
1 
1 
1 
1 
1 
1 
1 
1 
1 
1 
1 
1 
1 
1 
1 
1 
1 
1 
1 
1 
1 
1 
1 
1 
1 
1 
1 
1 
1 
1 
1 
1 
1 
1 
1 
1 
1 
1 
1 
1 
1 
1 
1 
1 
1 
1 
1 
1 
1 
1 
1 
1 
1 
1 
1 
1 
1 
1 
1 
1 
1 
1 
1 
1 
1 
1 
1 
1 
1 
1 
1 
1 
1 
1 
1 
1 
1 
1 
1 
1 
1 
1 
1 
1 
1 
1 
1 
1 
1 
1 
1 
1 
1 
1 
1 
1 
1 
1 
1 
1 
1 
1 
1 
1 
1 
1 
1 
1 
1 
1 
1 
1 
1 
1 
1 
1 
1 
1 
1 
1 
1 
1 
1 
1 
1 
1 
1 
1 
1 
1 
1 
1 
1 
1 
1 
1 
1 
1 
1 
1 
1 
1 
1 
1 
1 
1 
1 
1 
1 
1 
1 
1 
1 
1 
1 
1 
1 
1 
1 
1 
1 
1 
1 
1 
1 
1 
1 
1 
1 
1 
1 
1 
1 
1 
1 
1 
1 
1 
1 
1 
1 
1 
1 
1 
1 
1 
1 
1 
1 
1 
1 
1 
1 
1 
1 
1 
1 
1 
1 
1 
1 
1 
1 
1 
1 
1 
1 
1 
1 
1 
1 
1 
1 
1 
1 
1 
1 
1 
1 
1 
1 
1 
1 
1 
1 
1 
1 
1 
1 
1 
1 
1 
1 
1 
1 
1 
1 
1 
1 
1 
1 
1 
1 
1 
1 
1 
1 
1 
1 
1 
1 
1 
1 
1 
1 
1 
1 
1 
1 
1 
1 
1 
1 
1 
1 
1 
1 
1 
1 
1 
1 
1 
1 
1 
1 
1 
1 
1 
1 
1 
1 
1 
1 
1 
1 
1 
1 
1 
1 
1 
1 
1 
1 
1 
1 
1 
1 
1 
1 
1 
1 
1 
1 
1 
1 
1 
1 
1 
1 
1 
1 
1 
1 
1 
1 
1 
1 
1 
1 
1 
1 
1 
1 
1 
1 
1 
1 
1 
1 
1 
1 
1 
1 
1 
1 
1 
1 
1 
1 
1 
1 
1 
1 
1 
1 
1 
1 
1 
1 
1 
1 
1 
1 
1 
1 
1 
1 
1 
1 
1 
1 
1 
1 
1 
1 
1 
1 
1 
1 
1 
1 
1 
1 
1 
1 
1 
1 
1 
1 
1 
1 
1 
1 
1 
1 
1 
1 
1 
1 
1 
1 
1 
1 
1 
1 
1 
1 
1 
1 
1 
1 
1 
1 
1 
1 
1 
1 
1 
1 
1 
1 
1 
1 
1 
1 
1 
1 
1 
1 
1 
1 
1 
1 
1 
1 
1 
1 
1 
1 
1 
1 
1 
1 
1 
1 
1 
1 
1 
1 
1 
1 
1 
1 
1 
1 
1 
1 
1 
1 
1 
1 
1 
1 
1 
1 
1 
1 
1 
1 
1 
1 
1 
1 
1 
1 
1 
1 
1 
1 
1 
1 
1 
1 
1 
1 
1 
1 
1 
1 
1 
1 
1 
1 
1 
1 
1 
1 
1 
1 
1 
1 
1 
1 
1 
1 
1 
1 
1 
1 
1 
1 
1 
1 
1 
1 
1 
1 
1 
1 
1 
1 
1 
1 
1 
1 
1 
1 
1 
1 
1 
1 
1 
1 
1 
1 
1 
1 
1 
1 
1 
1 
1 
1 
1 
1 
1 
1 
1 
1 
1 
1 
1 
1 
1 
1 
1 
1 
1 
1 
1 
1 
1 
1 
1 
1 
1 
1 
1 
1 
1 
1 
1 
1 
1 
1 
1 
1 
1 
1 
1 
1 
1 
1 
1 
1 
1 
1 
1 
1 
1 
1 
1 
1 
1 
1 
1 
1 
1 
1 
1 
1 
1 
1 
1 
1 
1 
1 
1 
1 
1 
1 
1 
1 
1 
1 
1 
1 
1 
1 
1 
1 
1 
1 
1 
1 
1 
1 
1 
1 
1 
1 
1 
1 
1 
1 
1 
1 
1 
1 
1 
1 
1 
1 
1 
1 
1 
1 
1 
1 
1 
1 
1 
1 
1 
1 
1 
1 
1 
1 
1 
1 
1 
1 
1 
1 
1 
1 
1 
1 
1 
1 
1 
1 
1 
1 
1 
1 
1 
1 
1 
1 
1 
1 
1 
1 
1 
1 
1 
1 
1 
1 
1 
1 
1 
1 
1 
1 
1 
1 
1 
1 
1 
1 
1 
1 
1 
1 
1 
1 
1 
1 
1 
1 
1 
1 
1 
1 
1 
1 
1 
1 
1 
1 
1 
1 
1 
1 
1 
1 
1 
1 
1 
1 
1 
1 
1 
1 
1 
1 
1 
1 
1 
1 
1 
1 
1 
1 
1 
1 
1 
1 
1 
1 
1 
1 
1 
1 
1 
1 
1 
1 
1 
1 
1 
1 
1 
1 
1 
1 
1 
1 
1 
1 
1 
1 
1 
1 
1 
1 
1 
1 
1 
1 
1 
1 
1 
1 
1 
1 
1 
1 
1 
1 
1 
1 
1 
1 
1 
1 
1 
1 
1 
1 
1 
1 
1 
1 
1 
1 
1 
1 
1 
1 
1 
1 
1 
1 
1 
1 
1 
1 
1 
1 
1 
1 
1 
1 
1 
1 
1 
1 
1 
1 
1 
1 
1 
1 
1 
1 
1 
1 
1 
1 
1 
1 
1 
1 
1 
1 
1 
1 
1 
1 
1 
1 
1 
1 
1 
1 
1 
1 
1 
1 
1 
1 
1 
1 
1 
1 
1 
1 
1 
1 
1 
1 
1 
1 
1 
1 
1 
1 
1 
1 
1 
1 
1 
1 
1 
1 
1 
1 
1 
1 
1 
1 
1 
1 
1 
1 
1 
1 
1 
1 
1 
1 
1 
1 
1 
1 
1 
1 
1 
1 
1 
1 
1 
1 
1 
1 
1 
1 
1 
1 
1 
1 
1 
1 
1 
1 
1 
1 
1 
1 
1 
1 
1 
1 
1 
1 
1 
1 
1 
1 
1 
1 
1 
1 
1 
1 
1 
1 
1 
1 
1 
1 
1 
1 
1 
1 
1 
1 
1 
1 
1 
1 
1 
1 
1 
1 
1 
1 
1 
1 
1 
1 
1 
1 
1 
1 
1 
1 
1 
1 
1 
1 
1 
1 
1 
1 
1 
1 
1 
1 
1 
1 
1 
1 
1 
1 
1 
1 
1 
1 
1 
1 
1 
1 
1 
1 
1 
1 
1 
1 
1 
1 
1 
1 
1 
1 
1 
1 
1 
1 
1 
1 
1 
1 
1 
1 
1 
1 
1 
1 
1 
1 
1 
1 
1 
1 
1 
1 
1 
1 
1 
1 
1 
1 
1 
1 
1 
1 
1 
1 
1 
1 
1 
1 
1 
1 
1 
1 
1 
1 
1 
1 
1 
1 
1 
1 
1 
1 
1 
1 
1 
1 
1 
1 
1 
1 
1 
1 
1 
1 
1 
1 
1 
1 
1 
1 
1 
1 
1 
1 
1 
1 
1 
1 
1 
1 
1 
1 
1 
1 
1 
1 
1 
1 
1 
1 
1 
1 
1 
1 
1 
1 
1 
1 
1 
1 
1 
1 
1 
1 
1 
1 
1 
1 
1 
1 
1 
1 
1 
1 
1 
1 
1 
1 
1 
1 
1 
1 
1 
1 
1 
1 
1 
1 
1 
1 
1 
1 
1 
1 
1 
1 
1 
1 
1 
1 
1 
1 
1 
1 
1 
1 
1 
1 
1 
1 
1 
1 
1 
1 
1 
1 
1 
1 
1 
1 
1 
1 
1 
1 
1 
1 
1 
1 
1 
1 
1 
1 
1 
1 
1 
1 
1 
1 
1 
1 
1 
1 
1 
1 
1 
1 
1 
1 
1 
1 
1 
1 
1 
1 
1 
1 
1 
1 
1 
1 
1 
1 
1 
1 
1 
1 
1 
1 
1 
1 
1 
1 
1 
1 
1 
1 
1 
1 
1 
1 
1 
1 
1 
1 
1 
1 
1 
1 
1 
1 
1 
1 
1 
1 
1 
1 
1 
1 
1 
1 
1 
1 
1 
1 
1 
1 
1 
1 
1 
1 
1 
1 
1 
1 
1 
1 
1 
1 
1 
1 
1 
1 
1 
1 
1 
1 
1 
1 
1 
1 
1 
1 
1 
1 
1 
1 
1 
1 
1 
1 
1 
1 
1 
1 
1 
1 
1 
1 
1 
1 
1 
1 
1 
1 
1 
1 
1 
1 
1 
1 
1 
1 
1 
1 
1 
1 
1 
1 
1 
1 
1 
1 
1 
1 
1 
1 
1 
1 
1 
1 
1 
1 
1 
1 
1 
1 
1 
1 
1 
1 
1 
1 
1 
1 
1 
1 
1 
1 
1 
1 
1 
1 
1 
1 
1 
1 
1 
1 
1 
1 
1 
1 
1 
1 
1 
1 
1 
1 
1 
1 
1 
1 
1 
1 
1 
1 
1 
1 
1 
1 
1 
1 
1 
1 
1 
1 
1 
1 
1 
1 
1 
1 
1 
1 
1 
1 
1 
1 
1 
1 
1 
1 
1 
1 
1 
1 
1 
1 
1 
1 
1 
1 
1 
1 
1 
1 
1 
1 
1 
1 
1 
1 
1 
1 
1 
1 
1 
1 
1 
1 
1 
1 
1 
1 
1 
1 
1 
1 
1 
1 
1 
1 
1 
1 
1 
1 
1 
1 
1 
1 
1 
1 
1 
1 
1 
1 
1 
1 
1 
1 
1 
1 
1 
1 
1 
1 
1 
1 
1 
1 
1 
1 
1 
1 
1 
1 
1 
1 
1 
1 
1 
1 
1 
1 
1 
1 
1 
1 
1 
1 
1 
1 
1 
1 
1 
1 
1 
1 
1 
1 
1 
1 
1 
1 
1 
1 
1 
1 
1 
1 
1 
1 
1 
1 
1 
1 
1 
1 
1 
1 
1 
1 
1 
1 
1 
1 
1 
1 
1 
1 
1 
1 
1 
1 
1 
1 
1 
1 
1 
1 
1 
1 
1 
1 
1 
1 
1 
1 
1 
1 
1 
1 
1 
1 
1 
1 
1 
1 
1 
1 
1 
1 
1 
1 
1 
1 
1 
1 
1 
1 
1 
1 
1 
1 
1 
1 
1 
1 
1 
1 
1 
1 
1 
1 
1 
1 
1 
1 
1 
1 
1 
1 
1 
1 
1 
1 
1 
1 
1 
1 
1 
1 
1 
1 
1 
1 
1 
1 
1 
1 
1 
1 
1 
1 
1 
1 
1 
1 
1 
1 
1 
1 
1 
1 
1 
1 
1 
1 
1 
1 
1 
1 
1 
1 
1 
1 
1 
1 
1 
1 
1 
1 
1 
1 
1 
1 
1 
1 
1 
1 
1 
1 
1 
1 
1 
1 
1 
1 
1 
1 
1 
1 
1 
1 
1 
1 
1 
1 
1 
1 
1 
1 
1 
1 
1 
1 
1 
1 
1 
1 
1 
1 
1 
1 
1 
1 
1 
1 
1 
1 
1 
1 
1 
1 
1 
1 
1 
1 
1 
1 
1 
1 
1 
1 
1 
1 
1 
1 
1 
1 
1 
1 
1 
1 
1 
1 
1 
1 
1 
1 
1 
1 
1 
1 
1 
1 
1 
1 
1 
1 
1 
1 
1 
1 
1 
1 
1 
1 
1 
1 
1 
1 
1 
1 
1 
1 
1 
1 
1 
1 
1 
1 
1 
1 
1 
1 
1 
1 
1 
1 
1 
1 
1 
1 
1 
1 
1 
1 
1 
1 
1 
1 
1 
1 
1 
1 
1 
1 
1 
1 
1 
1 
1 
1 
1 
1 
1 
1 
1 
1 
1 
1 
1 
1 
1 
1 
1 
1 
1 
1 
1 
1 
1 
1 
1 
1 
1 
1 
1 
1 
1 
1 
1 
1 
1 
1 
1 
1 
1 
1 
1 
1 
1 
1 
1 
1 
1 
1 
1 
1 
1 
1 
1 
1 
1 
1 
1 
1 
1 
1 
1 
1 
1 
1 
1 
1 
1 
1 
1 
1 
1 
1 
1 
1 
1 
1 
1 
1 
1 
1 
1 
1 
1 
1 
1 
1 
1 
1 
1 
1 
1 
1 
1 
1 
1 
1 
1 
1 
1 
1 
1 
1 
1 
1 
1 
1 
1 
1 
1 
1 
1 
1 
1 
1 
1 
1 
1 
1 
1 
1 
1 
1 
1 
1 
1 
1 
1 
1 
1 
1 
1 
1 
1 
1 
1 
1 
1 
1 
1 
1 
1 
1 
1 
1 
1 
1 
1 
1 
1 
1 
1 
1 
1 
1 
1 
1 
1 
1 
1 
1 
1 
1 
1 
1 
1 
1 
1 
1 
1 
1 
1 
1 
1 
1 
1 
1 
1 
1 
1 
1 
1 
1 
1 
1 
1 
1 
1 
1 
1 
1 
1 
1 
1 
1 
1 
1 
1 
1 
1 
1 
1 
1 
1 
1 
1 
1 
1 
1 
1 
1 
1 
1 
1 
1 
1 
1 
1 
1 
1 
1 
1 
1 
1 
1 
1 
1 
1 
1 
1 
1 
1 
1 
1 
1 
1 
1 
1 
1 
1 
1 
1 
1 
1 
1 
1 
1 
1 
1 
1 
1 
1 
1 
1 
1 
1 
1 
1 
1 
1 
1 
1 
1 
1 
1 
1 
1 
1 
1 
1 
1 
1 
1 
1 
1 
1 
1 
1 
1 
1 
1 
1 
1 
1 
1 
1 
1 
1 
1 
1 
1 
1 
1 
1 
1 
1 
1 
1 
1 
1 
1 
1 
1 
1 
1 
1 
1 
1 
1 
1 
1 
1 
1 
1 
1 
1 
1 
1 
1 
1 
1 
1 
1 
1 
1 
1 
1 
1 
1 
1 
1 
1 
1 
1 
1 
1 
1 
1 
1 
1 
1 
1 
1 
1 
1 
1 
1 
1 
1 
1 
1 
1 
1 
1 
1 
1 
1 
1 
1 
1 
1 
1 
1 
1 
1 
1 
1 
1 
1 
1 
1 
1 
1 
1 
1 
1 
1 
1 
1 
1 
1 
1 
1 
1 
1 
1 
1 
1 
1 
1 
1 
1 
1 
1 
1 
1 
1 
1 
1 
1 
1 
1 
1 
1 
1 
1 
1 
1 
1 
1 
1 
1 
1 
1 
1 
1 
1 
1 
1 
1 
1 
1 
1 
1 
1 
1 
1 
1 
1 
1 
1 
1 
1 
1 
1 
1 
1 
1 
1 
1 
1 
1 
1 
1 
1 
1 
1 
1 
1 
1 
1 
1 
1 
1 
1 
1 
1 
1 
1 
1 
1 
1 
1 
1 
1 
1 
1 
1 
1 
1 
1 
1 
1 
1 
1 
1 
1 
1 
1 
1 
1 
1 
1 
1 
1 
1 
1 
1 
1 
1 
1 
1 
1 
1 
1 
1 
1 
1 
1 
1 
1 
1 
1 
1 
1 
1 
1 
1 
1 
1 
1 
1 
1 
1 
1 
1 
1 
1 
1 
1 
1 
1 
1 
1 
1 
1 
1 
1 
1 
1 
1 
1 
1 
1 
1 
1 
1 
1 
1 
1 
1 
1 
1 
1 
1 
1 
1 
1 
1 
1 
1 
1 
1 
1 
1 
1 
1 
1 
1 
1 
1 
1 
1 
1 
1 
1 
1 
1 
1 
1 
1 
1 
1 
1 
1 
1 
1 
1 
1 
1 
1 
1 
1 
1 
1 
1 
1 
1 
1 
1 
1 
1 
1 
1 
1 
1 
1 
1 
1 
1 
1 
1 
1 
1 
1 
1 
1 
1 
1 
1 
1 
1 
1 
1 
1 
1 
1 
1 
1 
1 
1 
1 
1 
1 
1 
1 
1 
1 
1 
1 
1 
1 
1 
1 
1 
1 
1 
1 
1 
1 
1 
1 
1 
1 
1 
1 
1 
1 
1 
1 
1 
1 
1 
1 
1 
1 
1 
1 
1 
1 
1 
1 
1 
1 
1 
1 
1 
1 
1 
1 
1 
1 
1 
1 
1 
1 
1 
1 
1 
1 
1 
1 
1 
1 
1 
1 
1 
1 
1 
1 
1 
1 
1 
1 
1 
1 
1 
1 
1 
1 
1 
1 
1 
1 
1 
1 
1 
1 
1 
1 
1 
1 
1 
1 
1 
1 
1 
1 
1 
1 
1 
1 
1 
1 
1 
1 
1 
1 
1 
1 
1 
1 
1 
1 
1 
1 
1 
1 
1 
1 
1 
1 
1 
1 
1 
1 
1 
1 
1 
1 
1 
1 
1 
1 
1 
1 
1 
1 
1 
1 
1 
1 
1 
1 
1 
1 
1 
1 
1 
1 
1 
1 
1 
1 
1 
1 
1 
1 
1 
1 
1 
1 
1 
1 
1 
1 
1 
1 
1 
1 
1 
1 
1 
1 
1 
1 
1 
1 
1 
1 
1 
1 
1 
1 
1 
1 
1 
1 
1 
1 
1 
1 
1 
1 
1 
1 
1 
1 
1 
1 
1 
1 
1 
1 
1 
1 
1 
1 
1 
1 
1 
1 
1 
1 
1 
1 
1 
1 
1 
1 
1 
1 
1 
1 
1 
1 
1 
1 
1 
1 
1 
1 
1 
1 
1 
1 
1 
1 
1 
1 
1 
1 
1 
1 
1 
1 
1 
1 
1 
1 
1 
1 
1 
1 
1 
1 
1 
1 
1 
1 
1 
1 
1 
1 
1 
1 
1 
1 
1 
1 
1 
1 
1 
1 
1 
1 
1 
1 
1 
1 
1 
1 
1 
1 
1 
1 
1 
1 
1 
1 
1 
1 
1 
1 
1 
1 
1 
1 
1 
1 
1 
1 
1 
1 
1 
1 
1 
1 
1 
1 
1 
1 
1 
1 
1 
1 
1 
1 
1 
1 
1 
1 
1 
1 
1 
1 
1 
1 
1 
1 
1 
1 
1 
1 
1 
1 
1 
1 
1 
1 
1 
1 
1 
1 
1 
1 
1 
1 
1 
1 
1 
1 
1 
1 
1 
1 
1 
1 
1 
1 
1 
1 
1 
1 
1 
1 
1 
1 
1 
1 
1 
1 
1 
1 
1 
1 
1 
1 
1 
1 
1 
1 
1 
1 
1 
1 
1 
1 
1 
1 
1 
1 
1 
1 
1 
1 
1 
1 
1 
1 
1 
1 
1 
1 
1 
1 
1 
1 
1 
1 
1 
1 
1 
1 
1 
1 
1 
1 
1 
1 
1 
1 
1 
1 
1 
1 
1 
1 
1 
1 
1 
1 
1 
1 
1 
1 
1 
1 
1 
1 
1 
1 
1 
1 
1 
1 
1 
1 
1 
1 
1 
1 
1 
1 
1 
1 
1 
1 
1 
1 
1 
1 
1 
1 
1 
1 
1 
1 
1 
1 
1 
1 
1 
1 
1 
1 
1 
1 
1 
1 
1 
1 
1 
1 
1 
1 
1 
1 
1 
1 
1 
1 
1 
1 
1 
1 
1 
1 
1 
1 
1 
1 
1 
1 
1 
1 
1 
1 
1 
1 
1 
1 
1 
1 
1 
1 
1 
1 
1 
1 
1 
1 
1 
1 
1 
1 
1 
1 
1 
1 
1 
1 
1 
1 
1 
1 
1 
1 
1 
1 
1 
1 
1 
1 
1 
1 
1 
1 
1 
1 
1 
1 
1 
1 
1 
1 
1 
1 
1 
1 
1 
1 
1 
1 
1 
1 
1 
1 
1 
1 
1 
1 
1 
1 
1 
1 
1 
1 
1 
1 
1 
1 
1 
1 
1 
1 
1 
1 
1 
1 
1 
1 
1 
1 
1 
1 
1 
1 
1 
1 
1 
1 
1 
1 
1 
1 
1 
1 
1 
1 
1 
1 
1 
1 
1 
1 
1 
1 
1 
1 
1 
1 
1 
1 
1 
1 
1 
1 
1 
1 
1 
1 
1 
1 
1 
1 
1 
1 
1 
1 
1 
1 
1 
1 
1 
1 
1 
1 
1 
1 
1 
1 
1 
1 
1 
1 
1 
1 
1 
1 
1 
1 
1 
1 
1 
1 
1 
1 
1 
1 
1 
1 
1 
1 
1 
1 
1 
1 
1 
1 
1 
1 
1 
1 
1 
1 
1 
1 
1 
1 
1 
1 
1 
1 
1 
1 
1 
1 
1 
1 
1 
1 
1 
1 
1 
1 
1 
1 
1 
1 
1 
1 
1 
1 
1 
1 
1 
1 
1 
1 
1 
1 
1 
1 
1 
1 
1 
1 
1 
1 
1 
1 
1 
1 
1 
1 
1 
1 
1 
1 
1 
1 
1 
1 
1 
1 
1 
1 
1 
1 
1 
1 
1 
1 
1 
1 
1 
1 
1 
1 
1 
1 
1 
1 
1 
1 
1 
1 
1 
1 
1 
1 
1 
1 
1 
1 
1 
1 
1 
1 
1 
1 
1 
1 
1 
1 
1 
1 
1 
1 
1 
1 
1 
1 
1 
1 
1 
1 
1 
1 
1 
1 
1 
1 
1 
1 
1 
1 
1 
1 
1 
1 
1 
1 
1 
1 
1 
1 
1 
1 
1 
1 
1 
1 
1 
1 
1 
1 
1 
1 
1 
1 
1 
1 
1 
1 
1 
1 
1 
1 
1 
1 
1 
1 
1 
1 
1 
1 
1 
1 
1 
1 
1 
1 
1 
1 
1 
1 
1 
1 
1 
1 
1 
1 
1 
1 
1 
1 
1 
1 
1 
1 
1 
1 
1 
1 
1 
1 
1 
1 
1 
1 
1 
1 
1 
1 
1 
1 
1 
1 
1 
1 
1 
1 
1 
1 
1 
1 
1 
1 
1 
1 
1 
1 
1 
1 
1 
1 
1 
1 
1 
1 
1 
1 
1 
1 
1 
1 
1 
1 
1 
1 
1 
1 
1 
1 
1 
1 
1 
1 
1 
1 
1 
1 
1 
1 
1 
1 
1 
1 
1 
1 
1 
1 
1 
1 
1 
1 
1 
1 
1 
1 
1 
1 
1 
1 
1 
1 
1 
1 
1 
1 
1 
1 
1 
1 
1 
1 
1 
1 
1 
1 
1 
1 
1 
1 
1 
1 
1 
1 
1 
1 
1 
1 
1 
1 
1 
1 
1 
1 
1 
1 
1 
1 
1 
1 
1 
1 
1 
1 
1 
1 
1 
1 
1 
1 
1 
1 
1 
1 
1 
1 
1 
1 
1 
1 
1 
1 
1 
1 
1 
1 
1 
1 
1 
1 
1 
1 
1 
1 
1 
1 
1 
1 
1 
1 
1 
1 
1 
1 
1 
1 
1 
1 
1 
1 
1 
1 
1 
1 
1 
1 
1 
1 
1 
1 
1 
1 
1 
1 
1 
1 
1 
1 
1 
1 
1 
1 
1 
1 
1 
1 
1 
1 
1 
1 
1 
1 
1 
1 
1 
1 
1 
1 
1 
1 
1 
1 
1 
1 
1 
1 
1 
1 
1 
1 
1 
1 
1 
1 
1 
1 
1 
1 
1 
1 
1 
1 
1 
1 
1 
1 
1 
1 
1 
1 
1 
1 
1 
1 
1 
1 
1 
1 
1 
1 
1 
1 
1 
1 
1 
1 
1 
1 
1 
1 
1 
1 
1 
1 
1 
1 
1 
1 
1 
1 
1 
1 
1 
1 
1 
1 
1 
1 
1 
1 
1 
1 
1 
1 
1 
1 
1 
1 
1 
1 
1 
1 
1 
1 
1 
1 
1 
1 
1 
1 
1 
1 
1 
1 
1 
1 
1 
1 
1 
1 
1 
1 
1 
1 
1 
1 
1 
1 
1 
1 
1 
1 
1 
1 
1 
1 
1 
1 
1 
1 
1 
1 
1 
1 
1 
1 
1 
1 
1 
1 
1 
1 
1 
1 
1 
1 
1 
1 
1 
1 
1 
1 
1 
1 
1 
1 
1 
1 
1 
1 
1 
1 
1 
1 
1 
1 
1 
1 
1 
1 
1 
1 
1 
1 
1 
1 
1 
1 
1 
1 
1 
1 
1 
1 
1 
1 
1 
1 
1 
1 
1 
1 
1 
1 
1 
1 
1 
1 
1 
1 
1 
1 
1 
1 
1 
1 
1 
1 
1 
1 
1 
1 
1 
1 
1 
1 
1 
1 
1 
1 
1 
1 
1 
1 
1 
1 
1 
1 
1 
1 
1 
1 
1 
1 
1 
1 
1 
1 
1 
1 
1 
1 
1 
1 
1 
1 
1 
1 
1 
1 
1 
1 
1 
1 
1 
1 
1 
1 
1 
1 
1 
1 
1 
1 
1 
1 
1 
1 
1 
1 
1 
1 
1 
1 
1 
1 
1 
1 
1 
1 
1 
1 
1 
1 
1 
1 
1 
1 
1 
1 
1 
1 
1 
1 
1 
1 
1 
1 
1 
1 
1 
1 
1 
1 
1 
1 
1 
1 
1 
1 
1 
1 
1 
1 
1 
1 
1 
1 
1 
1 
1 
1 
1 
1 
1 
1 
1 
1 
1 
1 
1 
1 
1 
1 
1 
1 
1 
1 
1 
1 
1 
1 
1 
1 
1 
1 
1 
1 
1 
1 
1 
1 
1 
1 
1 
1 
1 
1 
1 
1 
1 
1 
1 
1 
1 
1 
1 
1 
1 
1 
1 
1 
1 
1 
1 
1 
1 
1 
1 
1 
1 
1 
1 
1 
1 
1 
1 
1 
1 
1 
1 
1 
1 
1 
1 
1 
1 
1 
1 
1 
1 
1 
1 
1 
1 
1 
1 
1 
1 
1 
1 
1 
1 
1 
1 
1 
1 
1 
1 
1 
1 
1 
1 
1 
1 
1 
1 
1 
1 
1 
1 
1 
1 
1 
1 
1 
1 
1 
1 
1 
1 
1 
1 
1 
1 
1 
1 
1 
1 
1 
1 
1 
1 
1 
1 
1 
1 
1 
1 
1 
1 
1 
1 
1 
1 
1 
1 
1 
1 
1 
1 
1 
1 
1 
1 
1 
1 
1 
1 
1 
1 
1 
1 
1 
1 
1 
1 
1 
1 
1 
1 
1 
1 
1 
1 
1 
1 
1 
1 
1 
1 
1 
1 
1 
1 
1 
1 
1 
1 
1 
1 
1 
1 
1 
1 
1 
1 
1 
1 
1 
1 
1 
1 
1 
1 
1 
1 
1 
1 
1 
1 
1 
1 
1 
1 
1 
1 
1 
1 
1 
1 
1 
1 
1 
1 
1 
1 
1 
1 
1 
1 
1 
1 
1 
1 
1 
1 
1 
1 
1 
1 
1 
1 
1 
1 
1 
1 
1 
1 
1 
1 
1 
1 
1 
1 
1 
1 
1 
1 
1 
1 
1 
1 
POINT_DATA 5000
VECTORS Stress float
-1411.6 -2301.42 0.
-2591.04 -2997.51 0.
-12.9383 -8.63914 0.
-192.425 -284.463 0.
-3711.74 -7304.4 0.
-95.4563 -159.384 0.
-2263.4 -1696.81 0.
-81.59 -144.72 0.
-84.5213 -135.156 0.
-3917.32 -6512.6 0.
-1153.6 -2160.82 0.
-149.124 -221.305 0.
-2124.54 -2894.19 0.
-1651.29 -2292.38 0.
-1275.09 -1770.96 0.
-1061.47 -1516.76 0.
-842.593 -1267.82 0.
-961.704 -1482.02 0.
-811.687 -1378.09 0.
-643.908 -1291.92 0.
-822.128 -1484.58 0.
-756.598 -1332.92 0.
-690.488 -1181.83 0.
-743.586 -1297.66 0.
-814.415 -1462.31 0.
-882.795 -1629.41 0.
-1032.86 -1668.81 0.
-969.387 -1556.02 0.
-746.369 -1396.28 0.
-725.744 -1331.81 0.
-697.399 -1275.06 0.
-728.105 -1285.3 0.
-709.582 -1270.48 0.
-688.847 -1257.87 0.
-717.275 -1299.02 0.
-717.341 -1320.16 0.
-717.355 -1341.35 0.
-822.935 -1413.36 0.
-827.122 -1443.44 0.
-748.09 -1427.81 0.
-728.839 -1396.35 0.
-711.169 -1363.3 0.
-749.208 -1376 0.
-771.149 -1429.27 0.
-793.71 -1481.92 0.
-744.684 -1360.35 0.
-655.539 -1072.35 0.
-566.676 -784.074 0.
-453.701 -826.497 0.
-541.3 -1356.13 0.
-680.929 -1833.69 0.
-567.24 -1336.83 0.
-467.726 -795.448 0.
-561.811 -732.107 0.
-660.633 -1029.15 0.
-747.32 -1338.33 0.
-801.493 -1454.27 0.
-781.112 -1400.92 0.
-760.705 -1347.6 0.
-733.767 -1351.3 0.
-749.123 -1412.74 0.
-768.903 -1469.75 0.
-855.676 -1481.06 0.
-847.334 -1445.7 0.
-716.306 -1351.04 0.
-713.65 -1316.74 0.
-710.408 -1283.02 0.
-688.491 -1244.46 0.
-703.518 -1249.97 0.
-717.145 -1256.88 0.
-689.494 -1265.37 0.
-751.069 -1373.21 0.
-809.953 -1483.75 0.
-999.253 -1605.39 0.
-1034.15 -1667.91 0.
-881.429 -1589.33 0.
-795.106 -1425.33 0.
-749.587 -1314.57 0.
-652.458 -1242.57 0.
-734.818 -1395.6 0.
-824.436 -1541.38 0.
-738.505 -1382.77 0.
-951.614 -1562.61 0.
-1148.89 -1758.28 0.
-1043.97 -1400.27 0.
-1200.21 -1450.62 0.
-1346.61 -1510.82 0.
-1602.13 -2582.19 0.
-2743.69 -4451.16 0.
-63.1516 -133.214 0.
-701.819 -1165.54 0.
-4347.88 -6519.56 0.
-525.229 -587.012 0.
-504.737 -468.387 0.
-2684.34 -3161.67 0.
-72.549 -137.416 0.
-3517.45 -5332.72 0.
-144.154 -343.334 0.
-2836.74 -4675.49 0.
-659.055 -899.966 0.
-1714.26 -3096.07 0.
0.263946 0.55434 0.
-0.111346 -0.172408 0.
-0.000564944 -0.0018074 0.
-27.583 -23.9329 0.
-67.2364 -98.421 0.
-123.467 -172.082 0.
-94.0781 -103.176 0.
-811.495 -475.583 0.
-48.4653 -47.6376 0.
-32.8465 -20.2261 0.
-39.3523 -67.7364 0.
-760.169 -802.801 0.
-441.351 -298.844 0.
-397.285 -311.099 0.
-118.519 -128.558 0.
-98.7431 -115.662 0.
-306.346 -564.576 0.
-215.173 -423.082 0.
-168.018 -254.859 0.
-576.367 -1192.81 0.
-497.843 -1058.49 0.
-421.701 -922.751 0.
-561.904 -1031.85 0.
-617.731 -1211.54 0.
-670.241 -1394.54 0.
-1009.28 -1567.44 0.
-947.37 -1453.08 0.
-588.943 -1144.45 0.
-548.11 -1081.12 0.
-519.175 -1019.89 0.
-601.932 -1117.8 0.
-576.531 -1109.85 0.
-577.448 -1075.58 0.
-650.573 -1201 0.
-650.904 -1221.88 0.
-650.896 -1243.09 0.
-929.401 -1404.75 0.
-935.835 -1432.57 0.
-728.784 -1359.61 0.
-704.153 -1333.53 0.
-683.056 -1303.92 0.
-795.461 -1335.9 0.
-807.281 -1399.29 0.
-820.128 -1461.66 0.
-776.823 -1342.8 0.
-663.694 -1078.8 0.
-562.566 -802.797 0.
-133.603 -227.653 0.
-296.258 -682.492 0.
-432.462 -1163.69 0.
-323.547 -726.536 0.
-148.831 -260.098 0.
-566.485 -754.762 0.
-663.03 -1054.06 0.
-781.756 -1331.17 0.
-818.58 -1424.49 0.
-797.288 -1372.06 0.
-775.762 -1319.86 0.
-705.332 -1311.98 0.
-738.703 -1355.4 0.
-773.091 -1397.81 0.
-967.693 -1477.66 0.
-955.872 -1445.79 0.
-646.698 -1211.8 0.
-624.369 -1197.17 0.
-622.802 -1161.78 0.
-562.575 -1061.8 0.
-584.508 -1060.41 0.
-607.627 -1057.83 0.
-539.651 -976.708 0.
-574.71 -1111.11 0.
-637.052 -1218.22 0.
-931.313 -1464.03 0.
-967.029 -1525.75 0.
-761.346 -1441.58 0.
-658.111 -1207.51 0.
-633.904 -1070.49 0.
-293.384 -687.41 0.
-379.956 -852.245 0.
-478.527 -1009.31 0.
-105.664 -96.9557 0.
-207.318 -242.84 0.
-315.347 -484.336 0.
-240.839 -170.913 0.
-74.4101 -90.5408 0.
-129.032 -128.087 0.
-44.041 -81.8304 0.
-410.037 -615.279 0.
-127.842 -152.83 0.
-61.0609 -99.9415 0.
-77.0057 -134.212 0.
-91.8316 -157.56 0.
-102.969 -170.597 0.
-149.16 -248.448 0.
-73.8451 -127.639 0.
-116.473 -253.394 0.
-108.361 -260.525 0.
-130.48 -309.632 0.
-128.079 -313.423 0.
-5.42171 -6.10098 0.
0.401964 0.616353 0.
-0.151452 -0.318655 0.
-2.395 -2.37805 0.
0.01401 0.0941001 0.
-31.9504 -43.1238 0.
-141.914 -138.233 0.
-108.825 -69.0538 0.
-1503.45 -851.052 0.
-50.4015 -38.8948 0.
-44.2828 -19.0291 0.
-51.3256 -35.6865 0.
-199.897 -162.242 0.
-30.8138 -46.3607 0.
-790.031 -938.749 0.
-149.46 -142.984 0.
-172.99 -161.034 0.
-811.996 -1731.99 0.
-713.19 -1600.94 0.
-1059.07 -2605.85 0.
-1243.55 -2318.43 0.
-983.789 -1790.08 0.
-766.832 -1362.91 0.
-690.438 -1044.86 0.
-672.753 -1037.51 0.
-1605.11 -3242.53 0.
-1255.31 -1969.64 0.
-1255.85 -1978.45 0.
-831.885 -1425.02 0.
-658.334 -1070.84 0.
-583.416 -940.668 0.
-733.531 -1199.29 0.
-655.238 -1022.12 0.
-656.359 -1038.22 0.
-744.634 -1170.7 0.
-683.605 -1033.42 0.
-744.731 -1186.49 0.
-1065.11 -1435.29 0.
-1111.14 -1554.34 0.
-795.674 -1112.02 0.
-699.078 -915.448 0.
-685.633 -899.821 0.
-800.123 -1118.92 0.
-813.073 -1195.07 0.
-743.268 -1096.62 0.
-798.578 -1140.28 0.
-875.224 -1349.62 0.
-958.951 -1571.19 0.
-28.4469 -64.5483 0.
-1.09313 -0.400482 0.
-6185.21 -3955.56 0.
-0.000763962 -0.0256501 0.
-3.63094 -9.08473 0.
-970.741 -1521.71 0.
-880.423 -1285.14 0.
-793.841 -1089.69 0.
-743.45 -1061.89 0.
-728.501 -1020.27 0.
-755.865 -1039.66 0.
-702.157 -906.562 0.
-754.157 -1031.22 0.
-785.31 -1070.79 0.
-1159.82 -1583.54 0.
-1161.4 -1576.61 0.
-701.694 -1016.76 0.
-726.018 -1165.29 0.
-739.963 -1179.88 0.
-690.174 -1117.77 0.
-675.852 -1081.3 0.
-745.637 -1201.88 0.
-579.231 -900.474 0.
-727.711 -1253.71 0.
-836.551 -1429.91 0.
-1373.6 -2267.77 0.
-1416.03 -2362.68 0.
-1670.51 -3172.53 0.
-777.748 -1076.89 0.
-829.715 -1112.64 0.
-591.54 -1339.87 0.
-865.575 -1790.72 0.
-2569.33 -5698.95 0.
-486.388 -795.442 0.
-757.81 -1535.11 0.
-816.935 -1577.41 0.
-360.354 -241.223 0.
-158.853 -131.762 0.
-378.37 -303.893 0.
-69.4317 -101.222 0.
-126.954 -135.71 0.
-187.26 -177.771 0.
-81.271 -123.499 0.
-103.197 -154.831 0.
-162.38 -193.21 0.
-172.577 -215.082 0.
-266.362 -333.114 0.
-80.68 -130.343 0.
-122.802 -239.81 0.
-101.843 -230.183 0.
0.0353953 0.0953012 0.
-1423.49 -2641.35 0.
-2052.32 -4072.07 0.
-152.276 -372.183 0.
0.306161 0.685009 0.
-2713.52 -3882.93 0.
-237.757 -256.865 0.
-2857.06 -5041.12 0.
-7.73585 -9.79084 0.
-756.117 -1047.28 0.
-44.4133 -19.7011 0.
-3587.04 -6006.28 0.
-77.8295 -154.99 0.
-97.8226 -183.494 0.
-3624.69 -7617.59 0.
-51.4932 -137.41 0.
-1877.03 -2404.17 0.
-1386.23 -1901.7 0.
-956.155 -1367.38 0.
-1847.94 -4122.09 0.
-587.933 -1281.49 0.
-84.6913 -109.244 0.
-547.811 -1178.58 0.
-330.623 -742.573 0.
-217.654 -297.913 0.
-514.145 -673.81 0.
-351.046 -385.381 0.
-155.98 -146.967 0.
-608.565 -631.395 0.
-652.263 -765.82 0.
-402.129 -423.798 0.
-413.851 -477.13 0.
-436.128 -555.367 0.
-502.64 -661.515 0.
-470.372 -633.409 0.
-440.009 -596.077 0.
-468.229 -603.393 0.
-440.338 -538.221 0.
-426.983 -461.728 0.
-743.616 -821.029 0.
-740.392 -833.68 0.
-579.283 -569.385 0.
-578.04 -569.366 0.
-577.653 -572.386 0.
-720.319 -805.164 0.
-682.383 -715.131 0.
-637.463 -634.142 0.
-759.386 -740.155 0.
-813.937 -882.982 0.
-878.231 -1017.73 0.
-0.832014 -0.301108 0.
-1.13862 -0.415356 0.
-6679.29 -2955.44 0.
0.000573335 0.0371324 0.
0.0010623 0.0614767 0.
-830.177 -1025.44 0.
-789.5 -880.518 0.
-747.896 -737.064 0.
-656.585 -586.66 0.
-711.099 -656.718 0.
-749.441 -742.912 0.
-553.318 -571.395 0.
-548.434 -555.565 0.
-544.108 -541.011 0.
-694.164 -792.965 0.
-716.059 -803.987 0.
-425.59 -474.462 0.
-435.977 -535.13 0.
-477.111 -639.54 0.
-438.191 -600.654 0.
-456.974 -608.286 0.
-486.884 -606.41 0.
-434.568 -538.564 0.
-401.604 -456.818 0.
-387.973 -426.781 0.
-654.738 -699.693 0.
-601.767 -543.447 0.
-65.2387 -59.4141 0.
-384.477 -303.497 0.
-598.513 -696.739 0.
-50.962 -85.3843 0.
-155.479 -192.606 0.
-474.642 -831.868 0.
-56.8795 -131.908 0.
-723.928 -1287.64 0.
-2393.66 -4928.47 0.
-449.372 -436.451 0.
-1243.51 -1787.48 0.
-2151.56 -3065.1 0.
-83.8907 -162.037 0.
-4164.28 -7648.53 0.
-110.74 -195.712 0.
-96.1808 -157.597 0.
-3548.28 -5123.93 0.
-97.5778 -163.74 0.
-2829.88 -4512.39 0.
-97.5373 -160.107 0.
-2828.48 -5539.31 0.
-260.918 -520.756 0.
-1256.35 -2122.82 0.
-4.01704 -9.90677 0.
-1808.75 -4356.96 0.
-248.559 -383.201 0.
-0.133614 -0.309897 0.
-2067.36 -4232.98 0.
-0.172942 -0.380428 0.
-0.0623545 -0.121624 0.
-32.8486 -32.2387 0.
-18.2183 -18.5603 0.
-2.74064 -4.17451 0.
-14.1784 -5.1231 0.
-647.543 -477.968 0.
-95.5445 -162.703 0.
-110.553 -188.309 0.
-91.9107 -196.045 0.
-64.9148 -133.31 0.
-61.1794 -107.483 0.
-53.406 -88.4001 0.
-66.2156 -103.671 0.
-395.429 -484.916 0.
-63.1826 -87.7091 0.
-78.0794 -121.426 0.
-240.084 -362.42 0.
-71.9828 -97.4122 0.
-81.5734 -98.0337 0.
-486.446 -582.361 0.
-325.509 -288.89 0.
-81.5535 -94.6136 0.
-671.368 -656.423 0.
-718.19 -786.936 0.
-401.379 -400.957 0.
-444.347 -455.833 0.
-465.102 -533.601 0.
-512.554 -572.504 0.
-479.103 -541.661 0.
-442.838 -514.627 0.
-445.324 -543.366 0.
-431.831 -463.614 0.
-423.553 -379.943 0.
-807.275 -837.889 0.
-816.642 -852.772 0.
-653.036 -596.249 0.
-652.961 -595.28 0.
-655.309 -596.722 0.
-867.472 -807.266 0.
-831.572 -734.243 0.
-781.409 -689.591 0.
-950.423 -792.324 0.
-1015.02 -927.061 0.
-1078.98 -1061.85 0.
-0.94467 -0.342705 0.
-0.914121 -0.333951 0.
-8093.26 -3555.64 0.
0.000342371 0.0906409 0.
-0.0277632 -0.376368 0.
-1052.67 -1063.88 0.
-999.154 -931.186 0.
-956.481 -788.242 0.
-811.512 -649.668 0.
-850.597 -707.908 0.
-896.433 -785.667 0.
-616.992 -595.134 0.
-621.472 -569.243 0.
-606.84 -564.479 0.
-760.384 -818.861 0.
-767.412 -831.818 0.
-442.462 -446.418 0.
-452.236 -507.466 0.
-490.23 -617.402 0.
-428.105 -467.55 0.
-469.721 -450.26 0.
-503.358 -439.672 0.
-439.058 -546.342 0.
-407.576 -467.819 0.
-379.465 -388.269 0.
-700.303 -698.617 0.
-647.25 -547.415 0.
-54.715 -51.3946 0.
-225.736 -146.235 0.
-441.397 -528.635 0.
-78.2386 -95.9448 0.
-77.5115 -112.054 0.
-84.6042 -140.386 0.
-78.2095 -138.472 0.
-69.4505 -123.404 0.
-342.775 -249.72 0.
-110.931 -160.189 0.
-93.223 -154.96 0.
-103.943 -183.357 0.
-94.3608 -150.511 0.
-103.832 -175.219 0.
-105.792 -166.932 0.
-95.9303 -134.142 0.
-123.117 -204.393 0.
-115.06 -156.498 0.
-295.331 -518.901 0.
-51.2482 -86.8615 0.
-376.866 -673.316 0.
-124.206 -250.725 0.
0.28519 0.732822 0.
1.1781 3.21372 0.
-1.35567 -7.03833 0.
-1398.76 -1675.36 0.
-1.00848 -1.48441 0.
-8.41623 -16.5837 0.
-0.0348583 -3.05553 0.
-0.25245 -0.492629 0.
-195.752 -229.989 0.
-35.7946 -29.4634 0.
-2281.21 -4413.46 0.
-442.979 -750.29 0.
-359.776 -870.15 0.
-1678.47 -2266.89 0.
-123.036 -174.331 0.
-2874.2 -4834.03 0.
-36.4966 -100.681 0.
-48.1961 -118.621 0.
-3248.67 -6149.27 0.
-58.6002 -121.024 0.
-2449.84 -4271.42 0.
-810.854 -966.227 0.
-41.7351 -50.1697 0.
-2321.33 -4629.5 0.
-1153.04 -2402.15 0.
-81.1194 -78.8375 0.
-1215.39 -2180.28 0.
-880.671 -1604.04 0.
-607.88 -1121.15 0.
-1168.26 -1853.51 0.
-1051.58 -1712.48 0.
-800.797 -1260.26 0.
-760.082 -1168.77 0.
-720.514 -1077.97 0.
-730.73 -1063.08 0.
-705.127 -1045.44 0.
-685.949 -1021.38 0.
-762.193 -1157.5 0.
-734.813 -1125.3 0.
-710.439 -1090.09 0.
-1269.45 -1641.7 0.
-1186.59 -1519.03 0.
-895.989 -1077.14 0.
-882.102 -1043.36 0.
-869.49 -1007.9 0.
-1083.68 -1228.45 0.
-1075.57 -1223.21 0.
-1071.37 -1225.37 0.
-1277.5 -1447.76 0.
-1376.87 -1681.24 0.
-1477.39 -1913.55 0.
-1.60977 -1.37448 0.
-1.25651 -0.462727 0.
-8508.6 -4315.86 0.
0.00831925 0.443783 0.
0.0229844 0.286991 0.
-1469.77 -1968.49 0.
-1361.59 -1723.73 0.
-1253.92 -1478.46 0.
-1006.38 -1127.19 0.
-1060.93 -1169.41 0.
-1090.78 -1255.19 0.
-903.048 -1040.33 0.
-906.058 -1046.84 0.
-911.08 -1051.33 0.
-1155.7 -1474.58 0.
-1228.18 -1603.07 0.
-726.825 -1099.25 0.
-763.654 -1188.83 0.
-809.369 -1277.63 0.
-744.325 -989.563 0.
-728.956 -988.111 0.
-715.233 -985.014 0.
-642.014 -1123.73 0.
-703.938 -1220.87 0.
-769.92 -1316.08 0.
-992.459 -1623.62 0.
-1165.06 -1802.59 0.
-498.697 -891.282 0.
-908.071 -1732.28 0.
-1421.29 -2673.03 0.
-57.9889 -51.9035 0.
-1206.44 -2307.69 0.
-2776.01 -5570.17 0.
-201.268 -119.885 0.
-576.251 -417.584 0.
-2292.74 -3603.72 0.
-55.8804 -53.7066 0.
-3717.85 -7168.75 0.
-73.3406 -78.4918 0.
-73.1032 -78.4218 0.
-2852.18 -4698.29 0.
-90.2294 -145.022 0.
-2899.21 -5214 0.
-137.441 -193.27 0.
-143.68 -145.808 0.
-33.3333 -44.5341 0.
-96.0075 -150.267 0.
-402.743 -564.84 0.
-0.156017 -2.44363 0.
-2310.72 -4558.92 0.
-167.337 -430.957 0.
-2839.08 -4727.88 0.
-2059.67 -3884.17 0.
0.970852 1.28566 0.
-1621.41 -2538.16 0.
1.16934 2.99666 0.
-0.52715 -1.03837 0.
-379.507 -502.723 0.
-2306.5 -4315.77 0.
-125.437 -151.121 0.
-147.324 -343.316 0.
-0.20456 -0.460554 0.
-973.457 -1885.65 0.
-155.753 -189.522 0.
-23.7378 -65.5612 0.
-24.7944 -68.3667 0.
-30.424 -81.3658 0.
-258.7 -431.904 0.
-57.0561 -93.7767 0.
-55.9397 -112.615 0.
-39.3223 -69.2412 0.
-26.1912 -33.6011 0.
-489.194 -789.221 0.
-45.3557 -35.1851 0.
-57.7289 -47.5585 0.
-573.486 -1052.89 0.
-335.095 -446.226 0.
-152.095 -172.526 0.
-888.397 -1501.37 0.
-791.044 -1414.57 0.
-690.044 -1123.34 0.
-640.345 -1060.75 0.
-611.397 -998.587 0.
-697.956 -930.873 0.
-677.303 -912.315 0.
-656.961 -908.372 0.
-695.079 -972.134 0.
-672.457 -947.236 0.
-649.143 -923.343 0.
-1082.82 -1417.84 0.
-1008.12 -1311.99 0.
-822.081 -982.721 0.
-805.893 -951.355 0.
-790.02 -920.16 0.
-960.392 -1043.09 0.
-964.369 -1043.5 0.
-947.655 -1087.85 0.
-1098.61 -1308.56 0.
-1193.73 -1543.06 0.
-1291.33 -1779.43 0.
-1.50064 -1.41691 0.
-1.11778 -0.435457 0.
-6889.43 -3587.98 0.
0.0291952 0.396331 0.
0.0450692 0.198073 0.
-1298.86 -1832.85 0.
-1164.32 -1549.71 0.
-1048.75 -1296.06 0.
-869.305 -978.944 0.
-880.37 -1029.17 0.
-956.423 -1046.13 0.
-791.716 -952.32 0.
-791.215 -951.802 0.
-797.187 -965.073 0.
-993.575 -1313.58 0.
-1067.01 -1415.45 0.
-667.666 -981.727 0.
-685.004 -1020.88 0.
-721.655 -1096.58 0.
-698.737 -918.094 0.
-689.385 -909.449 0.
-686.397 -901.163 0.
-559.589 -938.544 0.
-592.256 -998.713 0.
-640.93 -1092.64 0.
-665.234 -1189.78 0.
-780.652 -1322.51 0.
-93.1709 -84.7239 0.
-227.844 -120.987 0.
-589.465 -1127.32 0.
-63.4496 -52.8313 0.
-60.001 -49.3027 0.
-214.555 -192.601 0.
-67.6531 -64.3999 0.
-54.6198 -59.0991 0.
-49.3917 -57.6036 0.
-64.5141 -77.6763 0.
-77.827 -110.612 0.
-81.4748 -117.848 0.
-79.5768 -112.422 0.
-88.8203 -137.611 0.
-53.7266 -100.356 0.
-59.7131 -113.469 0.
-53.1832 -75.1145 0.
-2757.13 -5435.69 0.
-148.373 -260.35 0.
-2429.87 -4303.42 0.
-455.313 -585.213 0.
2.08248 5.7676 0.
-0.137825 -0.314008 0.
-2.20662 -10.9833 0.
-49.9219 -60.7511 0.
-181.458 -359.311 0.
0.000100145 3.36828 0.
-1.52697 -3.47509 0.
2.2987 4.75031 0.
2.87805 7.74827 0.
-90.5508 -238.271 0.
-177.591 -215.338 0.
-7.36911 -2.90133 0.
-109.867 -294.55 0.
-0.138591 -0.283793 0.
-685.921 -1306.74 0.
-195.934 -201.824 0.
-13.0638 -34.8109 0.
-13.7615 -36.8701 0.
-19.0893 -51.1074 0.
-63.1031 -70.4452 0.
-60.776 -62.757 0.
-59.2631 -117.395 0.
-42.7234 -72.0748 0.
-25.6356 -32.3623 0.
-149.456 -128.375 0.
-50.7408 -36.8578 0.
-61.9934 -49.783 0.
-358.785 -297.064 0.
-117.738 -99.2744 0.
-192.877 -193.491 0.
-835.496 -1266.02 0.
-484.938 -563.423 0.
-510.226 -605.156 0.
-501.424 -554.149 0.
-291.01 -131.583 0.
-750.153 -805.397 0.
-389.247 -278.499 0.
-118.489 -97.1063 0.
-488.299 -477.196 0.
-521.231 -548.771 0.
-558.973 -614.852 0.
-769.504 -823.146 0.
-840.494 -927.986 0.
-649.277 -474.27 0.
-671.376 -547.837 0.
-545.37 -335.906 0.
-657.886 -500.46 0.
-627.646 -451.741 0.
-862.328 -1016.47 0.
-806.442 -909.372 0.
-712.009 -676.523 0.
-748.313 -772.939 0.
-1.4051 -1.43631 0.
-1.37691 -1.26246 0.
-6024.38 -3110.87 0.
0.0242693 0.0312802 0.
-0.116688 -0.166362 0.
-869.043 -1014.17 0.
-801.118 -810.482 0.
-851.049 -896.355 0.
-690.177 -499.78 0.
-807.917 -742.598 0.
-787.888 -588.651 0.
-608.597 -540.358 0.
-562.148 -416.55 0.
-605.005 -302.335 0.
-684.162 -649.886 0.
-861.217 -1062.49 0.
-420.945 -270.896 0.
-529.932 -435.05 0.
-270.38 -118.955 0.
-331.637 -256.917 0.
-294.329 -157.018 0.
-218.086 -126.427 0.
-248.939 -131.746 0.
-450.018 -493.043 0.
-472.535 -592.736 0.
-282.623 -248.364 0.
-658.267 -1076.37 0.
-106.096 -91.2537 0.
-73.4485 -71.4354 0.
-58.3883 -47.12 0.
-67.7365 -54.6476 0.
-64.4398 -50.4871 0.
-71.6411 -60.5839 0.
-96.0866 -75.2145 0.
-80.8027 -69.6108 0.
-72.4138 -67.5557 0.
-128.744 -127.549 0.
-102.947 -133.702 0.
-96.6913 -150.783 0.
-90.8035 -146.498 0.
-87.989 -144.937 0.
-30.3803 -84.0796 0.
-44.2642 -120.069 0.
-19.7465 -34.9347 0.
-191.396 -480.526 0.
-57.723 -145.831 0.
-0.756368 -2.24195 0.
-1207.25 -1060.86 0.
0.125316 0.335349 0.
-2146.75 -4094.94 0.
6.32955 9.34332 0.
-1655.09 -2262.44 0.
-1147.3 -1805.81 0.
-0.347348 -6.54124 0.
-1838.8 -2673.38 0.
-0.639783 -2.05786 0.
-2147.19 -4332.5 0.
-1716.65 -2273.34 0.
-322.987 -509.863 0.
-20.3739 -8.51417 0.
-101.905 -247.209 0.
-2225.6 -4576.44 0.
-1133.88 -1088.52 0.
-102.642 -117.562 0.
-2793.6 -5225.1 0.
-75.7342 -208.324 0.
-84.0954 -231.639 0.
-3188.92 -6349.6 0.
-78.9948 -159.853 0.
-3326.47 -4828.93 0.
-59.0089 -89.0594 0.
-29.2851 -48.4669 0.
-3131.06 -6948.04 0.
-134.307 -140.709 0.
-53.1066 -46.7462 0.
-2005.41 -4409.67 0.
-702.864 -1436.15 0.
-48.0466 -63.1595 0.
-1232.85 -2377 0.
-811.104 -1510.71 0.
-821.991 -1489.17 0.
-639.334 -1111.99 0.
-463.091 -735.754 0.
-667.5 -1024.47 0.
-630.206 -957.904 0.
-589.488 -898.152 0.
-606.618 -812.782 0.
-571.276 -753.86 0.
-528.846 -703.402 0.
-899.294 -1167.78 0.
-885.385 -1148.92 0.
-629.095 -796.197 0.
-621.948 -773.907 0.
-628.386 -788.433 0.
-701.497 -879.61 0.
-696.433 -873.869 0.
-694.398 -875.737 0.
-676.31 -952.088 0.
-727.723 -1063.91 0.
-793.136 -1187 0.
-1.23953 -1.62079 0.
-1.18653 -1.23828 0.
-4385.68 -2517.03 0.
0.219745 0.321397 0.
-0.134753 -0.270946 0.
-784.164 -1141.8 0.
-757.334 -1070.6 0.
-738.425 -989.938 0.
-769.501 -932.295 0.
-742.507 -859.276 0.
-684.012 -815.19 0.
-658.153 -790.042 0.
-650.293 -789.566 0.
-646.765 -800.184 0.
-903.762 -1162.91 0.
-919.2 -1178.75 0.
-564.557 -762.398 0.
-607.547 -835.39 0.
-648.124 -909.081 0.
-582.859 -877.198 0.
-687.628 -1086.38 0.
-790.673 -1294.63 0.
-471.224 -795.087 0.
-704.217 -1294.57 0.
-951.818 -1781.71 0.
-854.658 -1688.62 0.
-1553.64 -3147.62 0.
-67.4921 -58.5196 0.
-765.694 -1475.67 0.
-2461.01 -5291.94 0.
-44.2247 -55.5271 0.
-51.7183 -55.822 0.
-3121.43 -6643.03 0.
-79.5449 -76.5532 0.
-48.5486 -61.8473 0.
-2964.78 -4990.18 0.
-108.867 -112.225 0.
-2778.97 -2847.38 0.
-60.5333 -92.8776 0.
-2916 -5901.2 0.
-73.4915 -189.05 0.
-104.761 -229.162 0.
-2169.93 -3769.97 0.
-3.10836 -6.20385 0.
-0.0518771 -1.54606 0.
-33.9995 -81.0512 0.
-108.439 -205.177 0.
-9.17273 -21.3168 0.
-0.134025 -5.1569 0.
-2.94676 -14.687 0.
-6.10986 -14.1454 0.
-1522.45 -2186.42 0.
-1608.73 -2393.18 0.
-0.0965706 -1.15995 0.
-279.902 -484.473 0.
-1.90293 -18.4641 0.
-2.57506 -11.4415 0.
0.000115373 1.35548 0.
-0.0606108 -0.818481 0.
-40.4721 -20.5706 0.
-229.796 -486.106 0.
-322.513 -840.474 0.
1.72473 2.03694 0.
-0.00551991 -0.0140289 0.
-89.7739 -151.691 0.
-45.3634 -119.575 0.
-53.7158 -146.591 0.
-91.2651 -213.781 0.
-50.28 -106.696 0.
-124.819 -169.015 0.
-93.1478 -113.264 0.
-65.5068 -69.5546 0.
-55.1582 -54.1822 0.
-57.3793 -51.9764 0.
-59.2407 -50.6407 0.
-393.436 -658.487 0.
-63.0427 -62.358 0.
-64.5687 -72.6758 0.
-642.836 -1177.93 0.
-289.18 -246.533 0.
-545.776 -919.221 0.
-400.072 -507.577 0.
-232.763 -121.385 0.
-555.34 -804.977 0.
-516.595 -742.309 0.
-483.135 -674.922 0.
-541.134 -694.126 0.
-506.797 -635.681 0.
-476.266 -597.675 0.
-901.835 -1164.88 0.
-889.031 -1147.76 0.
-579.3 -652.232 0.
-573.805 -627.41 0.
-574.253 -619.003 0.
-595.514 -808.096 0.
-586.199 -786.98 0.
-577.524 -764.903 0.
-523.534 -859.996 0.
-576.851 -990.467 0.
-635.872 -1118.78 0.
-1.03394 -0.949748 0.
-1.00409 -0.904641 0.
-3104.05 -1843.76 0.
-0.266452 -0.394312 0.
0.0391641 0.0509708 0.
-643.6 -964.502 0.
-611.091 -898.402 0.
-577.925 -833.162 0.
-673.776 -812.215 0.
-637.145 -745.608 0.
-604.326 -680.301 0.
-598.079 -652.314 0.
-596.836 -647.752 0.
-611.114 -679.832 0.
-928.97 -1168.72 0.
-944.217 -1183.85 0.
-508.636 -632.611 0.
-549.449 -708.53 0.
-590.296 -790.884 0.
-386.043 -609.136 0.
-479.629 -826.799 0.
-592.075 -1032.05 0.
-57.4484 -55.4538 0.
-353.799 -492.103 0.
-565.015 -1018.03 0.
-75.9883 -53.6841 0.
-716.495 -1309.92 0.
-81.6355 -65.256 0.
-72.224 -57.5254 0.
-64.5412 -57.6704 0.
-46.8333 -55.7829 0.
-39.1413 -46.8053 0.
-58.8415 -65.6861 0.
-101.851 -83.1767 0.
-36.4984 -46.1363 0.
-42.9232 -60.18 0.
-80.2876 -70.7378 0.
-126.475 -116.002 0.
-83.0128 -131.311 0.
-460.919 -813.318 0.
-24.6632 -63.4201 0.
-46.7402 -129.203 0.
-0.0766643 -0.840525 0.
-1685.15 -3111.92 0.
0.155825 1.98885 0.
-59.5911 -160.358 0.
-1407.52 -2970.48 0.
-2422.75 -4891.62 0.
2.05341 4.79847 0.
-1617.01 -2899.49 0.
0.280151 0.400503 0.
-1090.79 -1560.36 0.
-1024.62 -1348.03 0.
1.27418 2.36004 0.
-1547.52 -2422.37 0.
-3.40531 -17.6682 0.
1.7005 3.21869 0.
-0.359028 -17.9782 0.
-20.27 -53.4853 0.
-2082.1 -3017.72 0.
-0.267644 -4.48743 0.
-310.74 -789.898 0.
-0.720173 -0.164401 0.
0.396615 1.05845 0.
-0.235125 -1.16787 0.
-26.2124 -68.2227 0.
-20.2584 -51.8594 0.
-1606.78 -3604.37 0.
-19.2907 -50.7722 0.
-2421.27 -4374.76 0.
-59.9631 -58.0568 0.
-43.1051 -76.584 0.
-2900.45 -6844.02 0.
-46.6497 -56.7925 0.
-38.3971 -34.4178 0.
-2489.74 -5304.45 0.
-253.251 -200.519 0.
-62.4607 -57.4019 0.
-1809.6 -3924.04 0.
-844.612 -1719.14 0.
-1140.38 -2194.87 0.
-779.681 -1452.98 0.
-461.137 -683.932 0.
-815.693 -1451.21 0.
-667.544 -1167.41 0.
-522.504 -880.736 0.
-707.839 -1004.91 0.
-687.273 -971.502 0.
-667.5 -942.782 0.
-1047.69 -1570.35 0.
-1023.32 -1524.28 0.
-734.334 -1020.07 0.
-718.695 -991.135 0.
-708.844 -977.339 0.
-732.196 -1109.07 0.
-700.67 -1158.5 0.
-711.786 -1175.62 0.
-731.268 -1250.58 0.
-691.101 -1143.08 0.
-587.951 -1100.38 0.
-130.055 -206.933 0.
-224.633 -462.457 0.
-3458.18 -3035.16 0.
-116.392 -271.164 0.
-38.6042 -78.682 0.
-581.294 -1111.24 0.
-611.661 -1167.94 0.
-644.541 -1229.76 0.
-744.026 -1097.56 0.
-739.654 -1089.39 0.
-739.34 -1093.35 0.
-766.927 -1016.02 0.
-765.794 -1009.49 0.
-764.72 -1003.1 0.
-1050.5 -1541.17 0.
-1079.77 -1617.23 0.
-621.185 -867.579 0.
-683.549 -969.833 0.
-755.056 -1089.73 0.
-443.551 -828.572 0.
-679.712 -1306.5 0.
-927.748 -1777.33 0.
-352.829 -471.872 0.
-827.109 -1534.77 0.
-1355.09 -2554.49 0.
-730.005 -1284.32 0.
-1929.6 -4191.2 0.
-46.4642 -41.1985 0.
-23.9075 -18.6142 0.
-2782.63 -6486.4 0.
-13.1027 -18.4438 0.
-49.5084 -43.9151 0.
-2595.28 -3612.61 0.
-105.429 -115.301 0.
-3253.01 -6402.74 0.
-84.8724 -119.819 0.
-78.5301 -70.4873 0.
-2433.71 -4646.29 0.
-355.147 -339.341 0.
-793.745 -1489.11 0.
-20.1669 -33.9673 0.
-39.5565 -94.0286 0.
-0.11797 -1.29615 0.
-264.246 -428.347 0.
-1690.18 -3126.57 0.
-0.023105 -2.77371 0.
5.29349 13.6658 0.
-0.7998 -8.0805 0.
12.5977 27.9588 0.
-138.204 -247.281 0.
7.25593 11.7902 0.
-791.629 -1124.84 0.
-175.593 -259.435 0.
28.5268 49.8925 0.
-8.95015 -34.0231 0.
-2.63666 -4.71494 0.
-1682.39 -3298.28 0.
-0.812127 -12.4031 0.
-57.9434 -157.591 0.
1.79644 3.91823 0.
-0.153969 -2.51379 0.
-594.154 -1523.38 0.
0.398861 0.191049 0.
-1943.44 -2688.37 0.
0.5791 1.10071 0.
-2164.31 -4636.16 0.
-22.1938 -61.3655 0.
-143.292 -326.736 0.
-57.7493 -101.597 0.
-37.4642 -54.3171 0.
-32.7593 -39.4918 0.
-24.1125 -51.9839 0.
-28.5019 -76.3091 0.
-24.9548 -41.2447 0.
-15.1291 -19.9084 0.
-20.1 -17.6968 0.
-24.8348 -23.9931 0.
-23.6955 -41.6804 0.
-601.648 -1234.5 0.
-56.3393 -29.6812 0.
-550.536 -930.725 0.
-217.979 -157.846 0.
-41.9395 -36.9727 0.
-524.349 -1000.26 0.
-380.706 -680.825 0.
-260.657 -343.23 0.
-564.87 -873.107 0.
-547.788 -839.614 0.
-531.511 -815.127 0.
-908.629 -1472.02 0.
-886.274 -1428.06 0.
-617.645 -882.527 0.
-611.956 -872.312 0.
-625.736 -919.324 0.
-573.243 -1021.58 0.
-585.553 -1043.21 0.
-598.273 -1065.71 0.
-549.481 -1170.9 0.
-516.184 -1069.9 0.
-482.627 -1053.56 0.
-218.284 -382.039 0.
-291.561 -640.591 0.
-1629.23 -2204.12 0.
-201.893 -472.077 0.
-130.221 -271.942 0.
-481.233 -1104.9 0.
-494.666 -1107.04 0.
-532.531 -1139.72 0.
-595.675 -1048.23 0.
-593.472 -1035.93 0.
-588.769 -1027.11 0.
-628.14 -941.42 0.
-612.91 -896.216 0.
-610.972 -890.447 0.
-913.421 -1440.94 0.
-941.946 -1512.42 0.
-422.926 -609.812 0.
-477.94 -719.164 0.
-535.412 -827.469 0.
-145.816 -79.1814 0.
-347.601 -595.101 0.
-552.54 -1105.14 0.
-38.4078 -40.9737 0.
-41.7108 -45.4756 0.
-539.013 -772.311 0.
-50.1406 -43.8859 0.
-508.699 -721.249 0.
-36.2068 -36.7033 0.
-13.1534 -10.6535 0.
-14.5984 -11.1855 0.
-20.1407 -25.4284 0.
-25.5461 -38.0175 0.
-87.6795 -135.333 0.
-51.2845 -88.5088 0.
-47.014 -94.2191 0.
-53.9481 -97.432 0.
-48.1141 -36.996 0.
-77.9011 -97.1882 0.
-44.7743 -74.6714 0.
-855.858 -1168.3 0.
-2650.9 -6024.04 0.
-46.2792 -101.96 0.
0.265595 2.94179 0.
-35.4517 -65.0107 0.
-1320.4 -2508.1 0.
-0.259583 -8.72582 0.
6.1433 14.8413 0.
-2.097 -21.2298 0.
-2.72927 -18.779 0.
-2096.72 -3451.51 0.
19.1727 32.1416 0.
-578.762 -828.373 0.
-364.206 -620.016 0.
40.4876 64.6287 0.
-1961.14 -3456.73 0.
-3.41473 -15.1171 0.
-3.98414 -9.68275 0.
-1.26808 -12.7196 0.
6.03721 12.6058 0.
6.30478 12.6828 0.
-0.510476 -7.64147 0.
0.0911457 4.1227 0.
-1511.21 -2975.39 0.
1.94069 3.20854 0.
-0.334926 -1.47954 0.
-8.98315 -24.8417 0.
-40.8084 -104.25 0.
-212.287 -430.452 0.
-116.522 -162.632 0.
-120.268 -190.932 0.
-11.1145 -16.2169 0.
-13.3534 -26.031 0.
-30.1902 -81.4219 0.
-12.0529 -30.32 0.
-4.34549 -9.07736 0.
-10.0876 -12.2555 0.
-11.8689 -19.042 0.
-11.8218 -30.0008 0.
-57.4689 -35.56 0.
-57.2125 -30.3212 0.
-40.9359 -22.187 0.
-44.3783 -29.2098 0.
-49.7561 -40.4358 0.
-276.533 -372.622 0.
-109.861 -67.9653 0.
-58.0243 -65.1507 0.
-356.997 -542.497 0.
-271.804 -320.657 0.
-35.6007 -45.6415 0.
-341.034 -352.371 0.
-469.528 -705.906 0.
-53.9887 -77.9782 0.
-238.027 -403.06 0.
-81.7725 -119.101 0.
-93.0766 -200.03 0.
-128.435 -276.766 0.
-149.041 -305.824 0.
-80.1412 -164.614 0.
-56.8123 -111.205 0.
-52.1328 -99.1433 0.
-91.5034 -118.585 0.
-172.691 -298.252 0.
-594.441 -886.586 0.
-3.40474 -8.26227 0.
-4.42346 -8.13785 0.
-19.1876 -34.8729 0.
-34.3467 -73.9027 0.
-77.5093 -180.342 0.
-188.532 -405.434 0.
-149.02 -315.927 0.
-153.123 -310.648 0.
-149.748 -156.393 0.
-214.043 -270.645 0.
-263.117 -286.102 0.
-439.286 -531.178 0.
-343.024 -270.388 0.
-87.3149 -63.7988 0.
-283.6 -422.751 0.
-381.996 -682.53 0.
-39.846 -38.2379 0.
-37.8455 -35.3676 0.
-292.372 -446.421 0.
-48.7098 -48.9899 0.
-46.9874 -47.8096 0.
-52.0903 -54.0295 0.
-37.901 -40.9021 0.
-26.4129 -31.1186 0.
-35.0446 -37.6359 0.
-15.4841 -11.992 0.
-6.12031 -3.97812 0.
-31.6177 -28.0269 0.
-34.3334 -33.459 0.
-86.5381 -153.432 0.
-32.5587 -51.0665 0.
-36.8367 -82.6202 0.
-42.6069 -70.1748 0.
-9.81413 -13.9179 0.
-2.16629 -1.74387 0.
-48.2199 -38.8614 0.
-142.541 -349.752 0.
-193.435 -523.639 0.
-41.3542 -94.4261 0.
-0.258423 -2.62649 0.
1.04484 1.91955 0.
-0.317259 -13.0983 0.
-1630.9 -4028.86 0.
6.99991 15.7812 0.
-1710.49 -3814.74 0.
14.5472 28.7158 0.
12.1363 23.1394 0.
17.0357 30.5885 0.
-840.723 -1361.11 0.
-274.734 -327.521 0.
-14.3893 -19.985 0.
-7.30137 -42.1623 0.
-4.7613 -8.10683 0.
-5.37532 -12.5395 0.
6.62642 14.6799 0.
7.29374 15.4012 0.
-2000.29 -4045.54 0.
-0.0549747 -0.763244 0.
-1663.03 -3232.06 0.
1.16797 1.88066 0.
0.00617106 1.02199 0.
1.69778 3.1325 0.
-3.74007 -9.04739 0.
-104.54 -149.155 0.
-1617.38 -2128.06 0.
-39.1795 -51.4965 0.
-44.1559 -53.4647 0.
-2969.9 -6827.92 0.
-14.7623 -36.7316 0.
-2173 -3897.1 0.
-33.5729 -46.8151 0.
-49.6002 -87.0655 0.
-2443.46 -5492.89 0.
-39.2204 -56.8867 0.
-30.2513 -50.4021 0.
-2247.88 -5369.21 0.
-256.422 -357.627 0.
-1666.52 -3372.01 0.
-791.702 -1448.29 0.
-59.954 -50.7732 0.
-1125.88 -2614.18 0.
-645.551 -1512.43 0.
-205.468 -367.018 0.
-711.995 -1638.64 0.
-484.834 -1089.05 0.
-281.88 -559.713 0.
-680.131 -1484.42 0.
-648.368 -1418.08 0.
-436.807 -852.582 0.
-440.871 -869.562 0.
-461.91 -919.838 0.
-354.061 -912.603 0.
-360.221 -931.038 0.
-368.768 -950.647 0.
-359.272 -973.08 0.
-334.147 -905.335 0.
-311.42 -840.851 0.
-299.956 -580.39 0.
-357.904 -764.117 0.
-264.171 -712.202 0.
-235.821 -610.95 0.
-179.684 -427.707 0.
-317.515 -850.916 0.
-341.538 -921.808 0.
-366.399 -993.372 0.
-353.273 -927.672 0.
-335.924 -885.084 0.
-320.238 -834.409 0.
-435.655 -862.396 0.
-424.342 -838.093 0.
-416.665 -825.04 0.
-642.311 -1458.32 0.
-731.12 -1644.4 0.
-243.569 -455.346 0.
-537.408 -1255.15 0.
-854.745 -2032.26 0.
-71.4354 -60.8887 0.
-695.229 -1579.09 0.
-1340.25 -3085.75 0.
-41.6238 -45.5028 0.
-781.464 -1302.6 0.
-1857.03 -3750.85 0.
-42.6231 -41.1925 0.
-2324.67 -5096.58 0.
-40.3065 -80.1741 0.
-31.8269 -66.4185 0.
-2660.55 -6181.13 0.
-29.5333 -55.6881 0.
-30.992 -49.5701 0.
-2456.42 -4264.75 0.
-75.4993 -109.575 0.
-1895.86 -2641.14 0.
-29.456 -57.7878 0.
-2074.05 -4744.24 0.
-5.28349 -3.93362 0.
-66.0027 -24.9857 0.
2.07216 0.577547 0.
-95.1121 -263.443 0.
0.0162516 0.147642 0.
-1952.72 -4044.93 0.
-17.3382 -34.0049 0.
-0.00812048 -6.81705 0.
1.71439 4.25538 0.
-1.60121 -27.5434 0.
-2.79908 -36.342 0.
-0.311111 -0.555199 0.
-1633.76 -2970.89 0.
24.592 38.1065 0.
-202.952 -327.51 0.
-466.541 -511.883 0.
-63.2961 -109.028 0.
-1706.46 -3373.94 0.
25.5292 48.2865 0.
-1220.29 -2730.89 0.
-14.813 -32.4213 0.
-1680.31 -3532.04 0.
-0.972972 -9.57941 0.
0.0484453 3.82886 0.
-415.104 -939.906 0.
-0.995791 -3.68652 0.
0.000874358 0.0529458 0.
-2144.89 -4167.28 0.
-1.15084 -4.34497 0.
-2618.26 -5462.41 0.
0.00691528 1.13808 0.
0.939088 1.23964 0.
-0.222295 -0.924739 0.
-74.8556 -170.343 0.
-9.39953 -25.9367 0.
-24.9877 -32.6236 0.
-38.1777 -41.9544 0.
-58.6656 -65.6469 0.
-45.8023 -62.3376 0.
-32.9477 -35.6629 0.
-28.9024 -35.0031 0.
-89.34 -88.4025 0.
-57.3906 -53.1914 0.
-323.402 -414.189 0.
-59.7485 -47.3256 0.
-60.1904 -51.0431 0.
-501.721 -1128.51 0.
-34.1095 -34.1276 0.
-27.6453 -31.3795 0.
-493.578 -1190.13 0.
-287.747 -624.378 0.
-166.617 -255.665 0.
-565.114 -1334.79 0.
-532.242 -1273.95 0.
-368.049 -744.854 0.
-362.546 -724.097 0.
-376.298 -753.55 0.
-340.207 -821.296 0.
-348.709 -838.834 0.
-357.826 -856.225 0.
-315.165 -866.406 0.
-292.681 -798.293 0.
-270.262 -729.768 0.
-373.84 -746.843 0.
-434.369 -932.049 0.
-442.44 -1185.46 0.
-290.116 -785.236 0.
-246.573 -623.556 0.
-278.734 -714.627 0.
-301.598 -790.574 0.
-325.786 -865.527 0.
-324.738 -806.685 0.
-299.494 -779.31 0.
-280.49 -747.01 0.
-306.224 -748.044 0.
-302.371 -722.249 0.
-305.994 -704.992 0.
-478.704 -1218.6 0.
-558.323 -1401.31 0.
-43.0452 -32.0176 0.
-287.119 -596.085 0.
-575.194 -1404.32 0.
-39.9935 -30.2465 0.
-38.8852 -27.9798 0.
-507.94 -983.926 0.
-42.2337 -41.9505 0.
-36.4519 -31.2768 0.
-98.0531 -63.7235 0.
-44.7854 -37.3603 0.
-42.2032 -57.5655 0.
-45.4474 -82.0327 0.
-35.2579 -65.6407 0.
-24.9504 -56.3416 0.
-18.5025 -48.6345 0.
-13.3385 -32.1023 0.
-80.7755 -191.23 0.
-182.819 -218.875 0.
-52.3369 -83.7936 0.
-18.8327 -41.332 0.
-23.8152 -61.067 0.
-23.5064 -55.7638 0.
-1864.55 -3438.01 0.
-1015.36 -2540.07 0.
-38.0192 -104.036 0.
-0.0554214 -0.424465 0.
3.93723 10.4758 0.
-111.903 -241.332 0.
-0.018361 -6.52203 0.
-1.77816 -20.9267 0.
-0.519087 -8.44027 0.
-4.04779 -9.30934 0.
-6.97239 -11.6293 0.
29.3212 56.7872 0.
-26.6377 -83.78 0.
7.80771 10.5464 0.
-0.904444 -5.9202 0.
-293.939 -513.407 0.
-8.78644 -73.0229 0.
-3.50809 -6.62939 0.
-51.7261 -116.275 0.
12.7638 31.6156 0.
-8.43564 -18.019 0.
-2.63492 -26.8936 0.
3.20259 8.25777 0.
-750.206 -1681.6 0.
-0.00399269 -4.7911 0.
-0.239035 -7.50391 0.
-533.966 -1037.45 0.
3.54594 7.46103 0.
-82.6745 -221.054 0.
0.309618 1.42644 0.
0.477711 0.671319 0.
-0.279112 -1.26669 0.
-70.0508 -162.66 0.
-132.443 -315.456 0.
-1944.94 -3979.24 0.
-29.1658 -24.5947 0.
-89.8367 -93.7615 0.
-2167.18 -5204 0.
-34.1564 -43.4618 0.
-21.023 -29.169 0.
-2229.14 -5069.15 0.
-40.9901 -38.8395 0.
-1752.21 -3720.66 0.
-512.57 -787.367 0.
-53.467 -43.1351 0.
-1390.35 -3284.85 0.
-571.475 -1307.92 0.
-26.6243 -38.3795 0.
-950.057 -2287.37 0.
-547.205 -1301.12 0.
-171.46 -289.563 0.
-754.366 -1758.66 0.
-620.542 -1528.47 0.
-441.146 -1056.85 0.
-392.524 -936.647 0.
-359.905 -858.434 0.
-373.361 -882.834 0.
-365.579 -862.416 0.
-357.411 -840.048 0.
-363.364 -945.829 0.
-323.742 -864.139 0.
-295.987 -787.428 0.
-414.446 -866.22 0.
-414.748 -871.086 0.
-903.647 -1160.11 0.
-248.197 -682.384 0.
-264.033 -710.727 0.
-295.059 -753.347 0.
-319.034 -818.83 0.
-346.856 -892.553 0.
-344.531 -836.161 0.
-351.911 -845.735 0.
-360.14 -855.282 0.
-337.29 -890.554 0.
-415.499 -1067.15 0.
-510.762 -1235.52 0.
-618.634 -1577.44 0.
-792.379 -1900.56 0.
-82.6248 -104.649 0.
-551.475 -1362.84 0.
-1049.94 -2599.75 0.
-33.9733 -20.1546 0.
-510.938 -1070.25 0.
-1631.82 -3939.42 0.
-43.4328 -45.7415 0.
-429.721 -298.401 0.
-1846.03 -3504.36 0.
-39.6851 -39.605 0.
-2382.35 -5762.36 0.
-16.4597 -41.6247 0.
-3.55442 -4.55188 0.
-1947.91 -2802.41 0.
-4.99685 -13.7481 0.
-2365.14 -5728.03 0.
-1170.1 -1207.13 0.
-485.012 -484.523 0.
-71.4289 -66.1131 0.
-11.0065 -30.1439 0.
-24.0079 -66.4976 0.
-0.244105 -0.606078 0.
-24.8596 -45.4475 0.
-42.8401 -114.204 0.
-262.633 -726.951 0.
3.04309 6.26754 0.
3.06617 7.65926 0.
-0.442128 -1.08475 0.
1.17372 3.1435 0.
-1644.17 -3532.36 0.
0.260458 0.625159 0.
-1715.08 -3813.39 0.
14.1953 31.2886 0.
-748.568 -1387.54 0.
-101.277 -161.435 0.
-18.4375 -67.5917 0.
131.864 345.925 0.
-42.7638 -72.7825 0.
33.665 54.3301 0.
-2.95601 -21.3486 0.
-6.24346 -29.9342 0.
-1.61494 -24.4939 0.
-96.7241 -200.699 0.
3.6848 8.34532 0.
-846.509 -2234.33 0.
-0.411867 -30.3437 0.
-0.00450496 -1.3517 0.
-962.222 -2171.91 0.
-149.384 -306.218 0.
-0.363597 -4.59678 0.
0.00170647 0.0808126 0.
-30.7873 -80.5325 0.
-2809.63 -5338.6 0.
0.94261 1.82136 0.
-1870.62 -4531.03 0.
7.10488e-05 0.283025 0.
-3.70699e-05 -0.0208126 0.
-12.2213 -12.6802 0.
-61.1814 -72.6655 0.
-34.281 -77.3762 0.
-21.3565 -38.5999 0.
-9.48525 -18.6415 0.
-55.2738 -54.038 0.
-45.5187 -37.5719 0.
-13.2924 -26.1131 0.
-25.2402 -29.4174 0.
-38.4308 -37.0244 0.
-419.006 -886.776 0.
-35.1164 -36.6582 0.
-36.7633 -42.8693 0.
-496.699 -1241.96 0.
-127.653 -222.085 0.
-55.8941 -59.1496 0.
-517.752 -1262.78 0.
-405.214 -1017.58 0.
-350.178 -884.302 0.
-296.656 -765.913 0.
-259.854 -673.453 0.
-312.565 -822.084 0.
-302.996 -804.392 0.
-293.05 -782.245 0.
-347.738 -930.208 0.
-328.351 -871.182 0.
-311.224 -820.291 0.
-400.751 -860.578 0.
-384.855 -825.582 0.
-260.87 -650.495 0.
-266.101 -733.615 0.
-281.873 -755.814 0.
-309.864 -783.788 0.
-329.135 -839.862 0.
-351.013 -903.687 0.
-293.901 -774.749 0.
-300.383 -787.744 0.
-308.194 -798.005 0.
-207.718 -550.301 0.
-276.883 -736.951 0.
-357.404 -921.132 0.
-325.765 -815.956 0.
-471.886 -1165.44 0.
-36.2488 -38.3368 0.
-24.7228 -15.0761 0.
-507.438 -1262.16 0.
-34.4066 -24.7936 0.
-31.8421 -23.5093 0.
-351.034 -791.861 0.
-49.683 -57.1664 0.
-32.4275 -44.5579 0.
-38.2676 -55.5788 0.
-34.6551 -32.1591 0.
-31.8548 -33.8369 0.
-12.9582 -34.6652 0.
-0.82936 -1.38116 0.
0.0540646 0.00740107 0.
0.0964404 0.156612 0.
-29.6332 -78.5855 0.
-35.7871 -90.9787 0.
-46.1783 -88.9313 0.
-453.658 -696.331 0.
-1780.29 -4027.66 0.
-27.7178 -72.7124 0.
-0.0787257 -2.43833 0.
-2.57235 -5.20015 0.
-39.6607 -105.383 0.
-1237.2 -2665.04 0.
0.109058 0.62947 0.
-1.25296 -18.9379 0.
-0.259809 -0.626262 0.
6.14852 15.9322 0.
-1.64793 -17.1459 0.
-1.57264 -34.2405 0.
-2.78946 -5.20236 0.
10.8832 22.701 0.
1.06639 2.24896 0.
75.0249 122.104 0.
-2.23843 -10.9412 0.
1.85287 144.961 0.
31.7439 54.3647 0.
15.142 28.8092 0.
25.2581 53.2194 0.
20.0018 40.838 0.
6.61005 15.3526 0.
-1438.87 -2899.27 0.
-2.70155 -28.7606 0.
8.57317 23.0614 0.
-0.26742 -25.5525 0.
-0.0128012 -1.60425 0.
-644.137 -1438.79 0.
-0.0325417 -2.13853 0.
2.56468 6.31833 0.
-1304.14 -3198.06 0.
-16.7359 -45.4585 0.
-35.9565 -73.5806 0.
-0.281722 -3.41744 0.
0.0899257 0.491035 0.
0.0493279 0.347467 0.
0.115306 0.304898 0.
-7.1925 -12.6206 0.
-56.592 -75.1548 0.
-34.4283 -66.4434 0.
-18.4229 -26.6069 0.
-13.3269 -17.1596 0.
-78.6816 -59.7245 0.
-68.8485 -46.3566 0.
-15.8393 -24.1612 0.
-18.2482 -25.7536 0.
-32.7721 -34.795 0.
-57.4801 -46.2522 0.
-50.9646 -43.0705 0.
-56.633 -51.5867 0.
-104.793 -181.686 0.
-48.7201 -49.0247 0.
-56.7672 -59.0791 0.
-114.018 -220.132 0.
-61.5114 -80.7527 0.
-130.197 -323.841 0.
-53.3608 -111.16 0.
-27.0697 -30.9291 0.
-70.3183 -194.749 0.
-123.943 -323.867 0.
-65.2544 -165.92 0.
-109.677 -228.748 0.
-80.8269 -131.746 0.
-113.3 -201.012 0.
-146.141 -199.286 0.
-150.361 -207.985 0.
-45.6262 -88.8724 0.
-16.8393 -29.4942 0.
-84.0262 -175.987 0.
-32.9222 -23.8585 0.
-123.252 -204.007 0.
-67.5612 -106.356 0.
-23.4303 -21.4296 0.
-103.748 -238.347 0.
-64.5253 -129.349 0.
-15.3665 -27.8026 0.
-66.8444 -170.182 0.
-59.7427 -144.93 0.
-43.37 -41.1007 0.
-145.023 -307.053 0.
-41.6333 -42.448 0.
-24.8005 -19.548 0.
-25.8412 -21.7777 0.
-38.2214 -26.4804 0.
-35.2802 -25.6074 0.
-28.5799 -28.7377 0.
-82.9987 -94.1681 0.
-24.1662 -32.6396 0.
-29.0318 -44.677 0.
-39.2606 -31.721 0.
-36.1332 -33.3257 0.
-15.3322 -29.239 0.
-4.38308 -2.23243 0.
-6.36642 -3.55441 0.
0.399751 0.175284 0.
-8.73946 -20.9174 0.
-9.70205 -19.9486 0.
-18.111 -31.079 0.
0.0142243 1.30267 0.
-398.715 -1011.81 0.
-0.0692347 -1.69727 0.
-1859.93 -3878.55 0.
2.36666 6.49214 0.
-69.1979 -183.499 0.
-81.8147 -175.038 0.
1.01499 31.6718 0.
-1681.73 -3923.79 0.
-30.2463 -71.6197 0.
10.6522 26.2708 0.
-346.744 -758.202 0.
-2.06786 -37.207 0.
-3.63667 -6.39805 0.
4.54314 9.26544 0.
-1051.16 -2163.32 0.
-77.1118 -125.694 0.
35.696 65.8016 0.
-2.72225 -73.4862 0.
-43.219 -72.6106 0.
31.5721 61.1999 0.
-242.967 -512.459 0.
-5.02938 -31.2989 0.
2.95462 7.5321 0.
-0.19102 -0.425531 0.
-2.9378 -32.3619 0.
-2.26115 -5.97907 0.
0.315002 0.854562 0.
-785.627 -1952.85 0.
-269.872 -652.223 0.
-0.379641 -19.9098 0.
-1258.64 -2915.26 0.
-0.141952 -9.10852 0.
-10.0426 -27.6997 0.
0.903127 2.02017 0.
-0.099686 -2.71358 0.
0.664828 0.110236 0.
-1869.15 -3766 0.
-10.12 -26.2753 0.
-2384.49 -3946.2 0.
-14.8316 -38.1487 0.
-1688.05 -3535.74 0.
-43.8808 -112.209 0.
-5.99125 -8.25988 0.
-2101.23 -5145.91 0.
-79.5989 -60.6949 0.
-1922.98 -3474.4 0.
-156.45 -164.128 0.
-36.4081 -25.1687 0.
-1899.18 -4660.92 0.
-226.888 -398.396 0.
-41.3785 -42.5038 0.
-1225.01 -3046.1 0.
-473.474 -1140.01 0.
-54.7406 -65.1709 0.
-881.517 -2197.33 0.
-564.273 -1433.1 0.
-595.014 -1510.02 0.
-436.303 -1141.59 0.
-292.198 -776.48 0.
-411.949 -1120.97 0.
-323.852 -886.665 0.
-237.919 -655.057 0.
-335.855 -854.536 0.
-292.236 -739.15 0.
-247.009 -628.787 0.
-383.071 -761.027 0.
-454.872 -898.701 0.
-198.572 -540.717 0.
-348.975 -820.931 0.
-302.597 -693.412 0.
-263.063 -655.954 0.
-304.608 -782.13 0.
-349.119 -913.367 0.
-249.054 -638.899 0.
-371.108 -959.418 0.
-498.103 -1280.05 0.
-272.913 -727.286 0.
-459.406 -1205.51 0.
-658.778 -1673.88 0.
-523.735 -1340.25 0.
-965.375 -2457.82 0.
-29.0595 -60.9807 0.
-426.579 -996.595 0.
-1420.84 -3483.71 0.
-31.3596 -33.8455 0.
-81.3471 -86.9629 0.
-2115.83 -5400.21 0.
-25.1127 -27.2182 0.
-29.7579 -29.3989 0.
-1990.16 -3276.88 0.
-23.4353 -13.7464 0.
-2202.93 -5394.27 0.
-63.7757 -88.2222 0.
-26.93 -47.8615 0.
-1955.98 -3076.48 0.
-5.74228 -13.7394 0.
-1731.43 -3991.61 0.
-58.2213 -149.507 0.
0.417851 0.652648 0.
0.00718788 0.192479 0.
0.663668 1.81248 0.
-0.10336 -2.98477 0.
-1.14726 -2.33582 0.
-687.039 -1590.25 0.
-126.051 -334.877 0.
2.40021 5.19199 0.
-2.72247 -7.13225 0.
-0.900651 -22.532 0.
-1356.37 -3130.96 0.
14.8318 34.7314 0.
-1570.75 -3352.66 0.
-0.456515 -1.09958 0.
-2.21095 -55.6133 0.
-9.44855 -52.9059 0.
-21.1803 -48.9198 0.
15.6031 31.7101 0.
-11.126 -37.1368 0.
71.7775 161.722 0.
-25.1517 -35.824 0.
-111.612 -193.67 0.
-4.32353 -58.6474 0.
18.6657 37.7179 0.
21.8007 53.8387 0.
4.0138 8.88482 0.
-3.41191 -33.306 0.
-95.237 -246.891 0.
-2.42883 -6.60417 0.
-28.5734 -77.7434 0.
9.84637 26.4893 0.
-0.231641 -9.66466 0.
-71.2471 -167.205 0.
-0.215925 -13.606 0.
-5.90942 -16.3646 0.
-0.0461529 -1.28751 0.
-1951.52 -4960.3 0.
1.54764 4.14275 0.
0.390871 0.870619 0.
0.381932 1.02693 0.
-30.2847 -81.4566 0.
-0.000168928 -0.436835 0.
-50.8938 -108.694 0.
-3.51652 -2.4357 0.
-0.0462038 -0.10023 0.
-65.2623 -67.8769 0.
-53.1473 -46.2165 0.
-34.7123 -39.9454 0.
-29.3127 -31.0226 0.
-27.1572 -22.9636 0.
-75.0911 -65.6195 0.
-47.2563 -32.6607 0.
-38.134 -41.581 0.
-443.903 -1038.65 0.
-29.2165 -48.5943 0.
-42.3925 -57.5224 0.
-500.448 -1240.91 0.
-193.192 -438.502 0.
-382.139 -997.225 0.
-237.931 -617.063 0.
-124.705 -309.001 0.
-351.996 -971.116 0.
-266.386 -736.225 0.
-181.991 -500.528 0.
-320.992 -759.085 0.
-275.223 -644.693 0.
-241.474 -518.542 0.
-425.365 -774.454 0.
-491.349 -918.422 0.
-16.0036 -39.4275 0.
-359.661 -800.4 0.
-315.612 -673.322 0.
-242.179 -572.373 0.
-287.967 -696.938 0.
-340.147 -824.483 0.
-143.054 -352.773 0.
-262.511 -677.441 0.
-384.692 -1002.27 0.
-51.6326 -114.882 0.
-203.629 -508.713 0.
-390.848 -991.124 0.
-63.7748 -127.496 0.
-505.062 -1304.46 0.
-18.7405 -40.5614 0.
-8.70125 -18.4468 0.
-265.795 -576.507 0.
-30.0174 -25.3877 0.
-31.939 -31.4846 0.
-37.7302 -48.7618 0.
-26.3497 -11.5935 0.
-28.7897 -18.8682 0.
-43.4066 -41.5254 0.
-17.1456 -9.25514 0.
-29.1317 -20.9592 0.
-43.4601 -46.2817 0.
-26.1877 -30.6199 0.
-28.3221 -53.1212 0.
-1.53737 -3.75493 0.
-63.9322 -176.836 0.
0.418928 1.1386 0.
-1640.44 -3604.91 0.
-0.0277238 -5.01274 0.
-0.00208259 -3.57173 0.
0.0326863 0.997872 0.
0.977176 2.05166 0.
-171.843 -391.313 0.
14.1938 39.2075 0.
-1052.34 -2272.14 0.
11.6957 30.9833 0.
7.38346 18.4527 0.
17.0807 41.1005 0.
-1.18476 -21.9785 0.
6.44991 14.9906 0.
1.70943 4.19662 0.
10.9222 26.3877 0.
25.2123 48.3753 0.
-172.143 -401.215 0.
-96.8856 -229.753 0.
28.3827 41.9481 0.
-19.6156 -102.817 0.
46.1694 60.3072 0.
73.1175 124.872 0.
23.8186 55.2361 0.
-6.75832 -66.2477 0.
-1112.85 -2676.11 0.
-1147.94 -2562.52 0.
-6.09273 -13.3614 0.
-1340.05 -3375.89 0.
0.13378 0.362872 0.
-3.52316 -9.55411 0.
1.92776 5.16817 0.
2.3958 6.18614 0.
5.33924 14.0511 0.
3.82469 10.1748 0.
-3.44668 -9.54392 0.
2.84914 7.86145 0.
-111.498 -295.408 0.
1.88072 5.16462 0.
-0.0929386 -1.52516 0.
0.683142 1.87286 0.
-18.5505 -46.0832 0.
-0.0349465 -0.472452 0.
-21.4464 -12.4956 0.
-1053.12 -2351.12 0.
-46.0947 -61.8728 0.
-1533.37 -3900.14 0.
-39.9893 -84.0961 0.
-1741.53 -3023.92 0.
-48.0218 -28.2965 0.
-17.789 -21.6275 0.
-1885.1 -4854.85 0.
-33.0334 -26.4732 0.
-54.4532 -52.4881 0.
-1464.8 -3538.82 0.
-302.941 -678.172 0.
-32.9674 -43.6042 0.
-1038.8 -2611.92 0.
-493.038 -1218.93 0.
-705.364 -1723.14 0.
-441.082 -1091.08 0.
-192.763 -460.766 0.
-505.685 -1295.69 0.
-352.969 -930.666 0.
-208.74 -562.431 0.
-396.022 -900.38 0.
-333.873 -744.264 0.
-275.628 -596.336 0.
-476.967 -827.854 0.
-443.919 -753.135 0.
-447.936 -511.621 0.
-316.746 -586.214 0.
-352.092 -675.333 0.
-265.943 -614.301 0.
-341.05 -816.071 0.
-425.186 -1031.86 0.
-185.564 -437.268 0.
-388.651 -966.699 0.
-602.589 -1493.28 0.
-159.109 -363.3 0.
-458.247 -1103.95 0.
-771.817 -1836.66 0.
-427.825 -1077.61 0.
-1150.45 -2936.41 0.
-15.3445 -34.5908 0.
-70.0783 -182.258 0.
-1584.05 -4122.33 0.
-56.5382 -96.836 0.
-63.7138 -87.8026 0.
-1420.71 -3290.74 0.
-37.2527 -32.4043 0.
-1797.31 -3939.63 0.
-36.2824 -40.451 0.
-15.4661 -8.95935 0.
-1138.88 -2769.66 0.
-177.337 -246.733 0.
-51.6324 -43.6561 0.
-35.8957 -60.0642 0.
-2.30147 -5.59365 0.
-43.0817 -110.584 0.
0.19267 0.533473 0.
-129.415 -347.11 0.
-0.0208281 -1.74459 0.
-1217.84 -2504.17 0.
-0.533942 -15.6257 0.
-0.0212545 -19.8852 0.
-445.741 -1028.78 0.
0.0908214 11.2001 0.
6.46689 17.4823 0.
-854.75 -2275.53 0.
-4.79226 -11.8081 0.
-0.0775771 -0.18898 0.
-1.04742 -15.9844 0.
5.6565 12.9794 0.
-100.462 -234.586 0.
15.0689 35.0089 0.
19.182 44.0779 0.
-211.093 -439.373 0.
64.3591 155.696 0.
-816.408 -1053.75 0.
-1.36544 -2.15544 0.
32.6132 39.9834 0.
40.4572 68.0687 0.
-194.035 -475.516 0.
-4.2504 -41.6418 0.
14.4559 34.1494 0.
11.3555 29.1985 0.
5.96999 14.7108 0.
16.0645 40.5998 0.
9.01343 24.1628 0.
-6.42741 -17.3607 0.
8.83114 23.5771 0.
-1228.26 -3271.11 0.
-0.391281 -21.0712 0.
4.42753 11.7291 0.
-1494.64 -3658.89 0.
2.39015 6.61071 0.
-8.03259 -21.7185 0.
2.24251 6.20878 0.
0.995502 2.525 0.
-19.2817 -42.8011 0.
-1659.96 -3746.77 0.
-0.576112 -1.57794 0.
-959.265 -2285.34 0.
-20.2044 -55.124 0.
-11.0834 -25.1559 0.
-29.522 -49.4201 0.
-4.34799 -6.25542 0.
-5.40693 -10.2805 0.
-50.3422 -28.7492 0.
-23.5823 -23.8674 0.
-43.2685 -42.8457 0.
-12.2127 -14.4427 0.
-25.4723 -30.1217 0.
-154.736 -288.617 0.
-20.9055 -27.1565 0.
-22.5054 -29.933 0.
-473.399 -1174.62 0.
-35.8212 -43.9659 0.
-390.871 -958.711 0.
-133.602 -298.722 0.
-27.2134 -50.1887 0.
-352.734 -929.862 0.
-211.318 -558.588 0.
-99.4487 -253.021 0.
-309.699 -756.549 0.
-250.931 -615.287 0.
-206.247 -500.058 0.
-450.1 -805.308 0.
-423.433 -734.91 0.
-230.883 -465.075 0.
-298.451 -614.474 0.
-324.793 -683.646 0.
-172.449 -431.335 0.
-244.127 -628.836 0.
-323.266 -837.131 0.
-36.7117 -48.7276 0.
-185.256 -444.152 0.
-385.268 -979.587 0.
-18.5242 -17.1948 0.
-41.3744 -74.4331 0.
-351.671 -809.404 0.
-24.0451 -24.7047 0.
-441.277 -1135.26 0.
-7.85479 -17.2789 0.
-10.6186 -20.1331 0.
-71.6485 -175.954 0.
-24.4693 -19.6243 0.
-24.8662 -17.0828 0.
-26.9915 -22.0491 0.
-24.6052 -18.6601 0.
-359.645 -892.659 0.
-33.6055 -14.7641 0.
-4.97669 -2.02528 0.
-56.9219 -103.063 0.
0.220076 0.380267 0.
-1937.66 -4112.4 0.
-146.558 -346.674 0.
-154.559 -311.696 0.
-1244.96 -2236.29 0.
0.820353 2.2659 0.
-56.1935 -154.883 0.
0.00460501 0.276484 0.
-0.22075 -11.4195 0.
-1236.29 -2774.09 0.
-0.03451 -10.7643 0.
-730.855 -1699.59 0.
-4.82122 -12.3448 0.
12.4831 33.99 0.
10.4789 27.8431 0.
11.9221 28.9482 0.
-1302.57 -3217.07 0.
1.98372 4.65049 0.
-1169.25 -2678.17 0.
-994.629 -2231.61 0.
6.89704 14.6569 0.
5.49443 12.4008 0.
37.8725 74.8209 0.
-15.0699 -33.2224 0.
-10.96 -23.2902 0.
18.2661 44.5346 0.
-10.7176 -21.6245 0.
-1.24975 -2.60832 0.
-74.9995 -177.807 0.
-5.28657 -11.8383 0.
24.7021 56.0192 0.
20.7787 52.5971 0.
2.49093 6.07544 0.
18.3213 44.9812 0.
-0.810335 -40.2353 0.
-8.86888 -23.8532 0.
-402.332 -1065.32 0.
-0.00158825 -33.1015 0.
0.71596 1.91388 0.
-0.38528 -17.4898 0.
0.000120885 5.07541 0.
-0.0299197 -4.60778 0.
-0.0209477 -4.36238 0.
-867.519 -2090.11 0.
-1405.45 -2983.69 0.
-0.0975487 -1.35771 0.
0.364127 0.881435 0.
-0.00749327 -1.87871 0.
0.715942 1.91099 0.
-7.83657 -20.0319 0.
0.308936 0.596264 0.
-15.7308 -23.5129 0.
-12.0287 -11.076 0.
-13.5265 -13.7187 0.
-52.567 -29.174 0.
-38.7467 -28.842 0.
-0.614168 -1.65132 0.
-2.21341 -5.15762 0.
-17.1025 -25.9745 0.
-22.9917 -30.5138 0.
-22.0541 -26.6597 0.
-21.6924 -23.3619 0.
-34.9724 -36.6907 0.
-39.6312 -40.139 0.
-42.4939 -68.7224 0.
-31.0791 -48.5205 0.
-33.4497 -54.9086 0.
-155.989 -383.418 0.
-56.61 -110.051 0.
-36.0902 -56.0659 0.
-161.398 -312.269 0.
-157.504 -296.805 0.
-91.9768 -139.524 0.
-246.465 -138.68 0.
-240.583 -149.303 0.
-80.2582 -66.8124 0.
-75.4029 -78.3637 0.
-272.776 -411.446 0.
-36.7341 -61.7782 0.
-134.78 -322.773 0.
-144.727 -351.022 0.
-28.2459 -32.5461 0.
-33.2778 -40.534 0.
-140.132 -331.887 0.
-23.0724 -19.522 0.
-25.4761 -28.3591 0.
-29.8824 -40.8641 0.
-26.989 -28.7683 0.
-28.8984 -35.3869 0.
-12.4248 -20.6679 0.
-11.8775 -18.3032 0.
-12.0245 -17.3458 0.
-26.7223 -20.2577 0.
-17.0951 -12.217 0.
-15.6473 -11.331 0.
-19.072 -12.3812 0.
-37.3836 -26.2685 0.
-38.1799 -17.9727 0.
-43.5158 -27.8527 0.
-90.8318 -173.319 0.
0.326021 0.582436 0.
-1.51173 -3.6642 0.
-67.8788 -175.659 0.
-39.4671 -94.3637 0.
-0.00318506 -2.9919 0.
-1655.13 -3584.27 0.
4.24322 10.8759 0.
0.0941451 4.45499 0.
-0.26669 -25.8199 0.
-209.093 -492.085 0.
-0.0164729 -2.26017 0.
-0.259333 -23.6567 0.
-895.375 -2309.94 0.
-5.68733 -15.5564 0.
-4.3284 -11.1692 0.
13.4285 34.4711 0.
-148.363 -384.339 0.
-2.32701 -60.1614 0.
-2.58971 -84.031 0.
31.0024 73.521 0.
21.6868 45.01 0.
9.67224 21.567 0.
68.1079 127.808 0.
76.3902 157.805 0.
-8.83403 -21.0213 0.
6.0806 14.3665 0.
-16.0279 -32.3302 0.
-20.2289 -130.943 0.
45.7983 105.283 0.
-0.687906 -29.5118 0.
-22.5937 -49.5113 0.
22.0911 55.1003 0.
-3.14574 -7.60941 0.
-235.811 -563.451 0.
8.30597 21.6158 0.
-766.298 -2050.71 0.
12.5435 34.7196 0.
-0.0726319 -30.5878 0.
-0.19038 -15.2574 0.
-1072.05 -2793.55 0.
0.00114052 10.4309 0.
0.0883524 5.17497 0.
-681.671 -1670.89 0.
-38.8881 -98.3209 0.
-0.326123 -2.41464 0.
-0.0280097 -0.520749 0.
0.940702 2.34967 0.
0.679739 1.86656 0.
-0.14867 -3.42021 0.
-1454 -2757.39 0.
0.00672375 0.978329 0.
-1508.83 -3454.93 0.
-36.6885 -81.771 0.
-8.25803 -6.23914 0.
-1975.3 -4190.08 0.
-23.778 -50.0371 0.
-1322.52 -2982.96 0.
-11.028 -21.5502 0.
-39.9268 -82.0463 0.
-1571.85 -3960.08 0.
-40.1853 -69.936 0.
-32.2807 -48.0712 0.
-1275.4 -3228.31 0.
-217.628 -482.056 0.
-890.766 -2123.31 0.
-446.736 -1029.26 0.
-99.0164 -186.867 0.
-694.328 -1797.34 0.
-408.96 -1055.57 0.
-144.839 -329.444 0.
-484.204 -1255.73 0.
-332.733 -852.528 0.
-197.313 -480.326 0.
-483.901 -948.856 0.
-450.003 -856.685 0.
-212.574 -526.51 0.
-358.167 -772.859 0.
-422.675 -937.135 0.
-171.482 -426.919 0.
-352.194 -923.93 0.
-563.568 -1491.14 0.
-49.9582 -96.3654 0.
-420.926 -1084.36 0.
-799.331 -2064.49 0.
-33.5087 -53.5629 0.
-446.361 -987.586 0.
-976.395 -2257.06 0.
-81.8197 -162.839 0.
-1352.07 -3525.26 0.
-15.5929 -28.6237 0.
-21.6021 -35.5667 0.
-1650.19 -4269.4 0.
-48.38 -61.9994 0.
-46.3778 -60.6319 0.
-1701.68 -3214.73 0.
-8.1337 -8.62652 0.
-1695.39 -4018.38 0.
-55.7918 -74.8031 0.
-45.1871 -45.9612 0.
-1654.64 -2683.99 0.
-0.0545374 -0.680157 0.
-1268.82 -3431.77 0.
0.397859 1.09692 0.
-33.4606 -83.3832 0.
4.7319 13.0976 0.
3.14986 7.52642 0.
6.98905 18.2563 0.
-1373.41 -3127.79 0.
-0.043347 -6.11911 0.
-487.896 -1178.81 0.
-226.324 -583.673 0.
4.04846 10.9916 0.
4.04508 11.1746 0.
-161.366 -442.654 0.
-314.958 -786.745 0.
-2.43701 -6.29288 0.
-290.122 -734.811 0.
-2.24012 -51.0315 0.
-1.28247 -36.8424 0.
3.71623 8.61562 0.
-7.0654 -44.6643 0.
-6.65244 -90.243 0.
-54.4442 -90.1396 0.
-35.8146 -208.527 0.
15.7984 24.3691 0.
-2.30617 -24.028 0.
75.6421 102.591 0.
-19.0881 -114.784 0.
-18.8611 -42.1808 0.
-3.13322 -108.136 0.
-1166.98 -2555.27 0.
-1094.15 -2688.84 0.
-3.35373 -52.029 0.
-1181.29 -2756.1 0.
-0.0604566 -5.87262 0.
-1.25247 -54.8167 0.
11.4129 31.5534 0.
10.9878 29.826 0.
-163.101 -444.251 0.
-0.551821 -1.44872 0.
-0.00150017 -22.18 0.
-0.436792 -13.4836 0.
-196.11 -497.944 0.
0.576816 1.50439 0.
-0.0222213 -9.34177 0.
-0.00884174 -0.202472 0.
0.488111 1.22955 0.
-1649.61 -4298.8 0.
-0.000315716 -0.830673 0.
-0.16082 -1.73173 0.
2.50203e-05 0.727337 0.
-60.1091 -153.011 0.
-3.06232 -1.97627 0.
-4.39897 -4.4279 0.
-0.000966491 -0.268712 0.
-11.0042 -28.5639 0.
-20.5171 -36.8393 0.
-9.85054 -13.7538 0.
-22.2279 -59.1778 0.
-55.0496 -80.6171 0.
-44.0517 -48.1921 0.
-30.6644 -18.8069 0.
-354.238 -866.094 0.
-44.0043 -61.4238 0.
-355.806 -794.313 0.
-37.7621 -53.3878 0.
-34.1101 -44.9706 0.
-394.231 -1021.42 0.
-134.238 -311.534 0.
-30.4029 -48.2964 0.
-379.935 -970.2 0.
-257.53 -631.902 0.
-137.549 -295.261 0.
-448.362 -861.405 0.
-415.617 -774.242 0.
-48.5187 -48.7109 0.
-312.518 -664.25 0.
-354.701 -780.584 0.
-66.1455 -115.418 0.
-219.129 -546.954 0.
-400.935 -1050.17 0.
-18.3105 -21.4743 0.
-36.4606 -61.9774 0.
-393.839 -1021.72 0.
-18.0007 -16.6533 0.
-20.5214 -23.7947 0.
-293.394 -626.089 0.
-33.1742 -29.7196 0.
-278.735 -652.595 0.
-11.1081 -18.5843 0.
-9.04587 -18.088 0.
-22.8875 -28.6381 0.
-34.5564 -31.8295 0.
-29.0232 -21.5979 0.
-29.7316 -26.2308 0.
-10.1569 -9.62384 0.
-12.9447 -15.5716 0.
-70.5079 -125.589 0.
-17.6989 -23.788 0.
-57.1758 -70.4563 0.
-0.170962 -2.00185 0.
-95.7759 -262.263 0.
0.0384883 0.351407 0.
-1244.82 -1890.06 0.
0.00100218 7.33336 0.
2.71394 6.72856 0.
-0.109632 -5.15202 0.
-1.62585 -18.7943 0.
10.4739 28.57 0.
4.256 11.5984 0.
-859.776 -2219.95 0.
-0.158877 -22.0818 0.
12.7638 34.8264 0.
-0.344764 -53.4448 0.
-948.161 -2294.45 0.
15.4955 40.2237 0.
-441.133 -1094.93 0.
-2.78931 -57.9903 0.
32.4677 82.4973 0.
23.1615 52.6228 0.
17.9332 35.9636 0.
-24.8555 -59.1091 0.
-635.553 -1022.9 0.
84.6664 166.22 0.
15.6435 25.4116 0.
14.5149 31.0782 0.
56.853 109.05 0.
55.2066 109.018 0.
-148.585 -290.784 0.
42.9597 102.932 0.
38.8122 89.2338 0.
4.71529 11.6283 0.
6.9147 18.2896 0.
19.3083 49.8429 0.
11.8795 31.6395 0.
-7.50121 -19.278 0.
7.06407 19.4982 0.
-657.112 -1747.22 0.
-1.4398 -68.8481 0.
-0.742609 -1.90876 0.
-0.000219598 -10.4053 0.
-378.092 -1010.33 0.
-15.1865 -39.3698 0.
1.82945 4.85325 0.
0.00859484 3.31398 0.
-925.833 -2072.58 0.
-0.453944 -13.391 0.
-97.947 -267.175 0.
2.56311 6.8686 0.
-0.110497 -1.68758 0.
0.00370031 2.17316 0.
-14.0678 -35.5602 0.
-0.772953 -0.79905 0.
-63.5111 -174.445 0.
-1406.12 -3717.36 0.
-14.6701 -31.8352 0.
-1523.08 -2299.42 0.
-2.71508 -3.90075 0.
-53.8473 -97.254 0.
-1545.92 -3931.15 0.
-37.0327 -57.0544 0.
-28.8346 -34.7168 0.
-1320.64 -3393.72 0.
-46.4304 -55.9874 0.
-981.921 -2253.65 0.
-402.396 -869.984 0.
-34.2108 -41.5032 0.
-837.476 -2149.32 0.
-383.064 -964.1 0.
-18.4674 -11.3867 0.
-561.948 -1475.65 0.
-333.573 -869.049 0.
-122.312 -281.939 0.
-499.659 -1040.66 0.
-441.245 -903.847 0.
-124.806 -235.614 0.
-370.556 -867.258 0.
-482.567 -1157.28 0.
-80.0078 -149.877 0.
-350.051 -892.831 0.
-655.075 -1700.63 0.
-7.92378 -6.19401 0.
-336.452 -868.73 0.
-917.77 -2390.64 0.
-17.7838 -16.2925 0.
-352.524 -764.075 0.
-1005.67 -2315.02 0.
-28.6826 -15.6152 0.
-1419.64 -3330.85 0.
-5.81749 -2.14485 0.
-17.4204 -11.3404 0.
-1627.43 -4301.87 0.
-29.8514 -39.7368 0.
-21.2733 -17.1519 0.
-1387.58 -2705.55 0.
-11.5225 -15.0989 0.
-1224.92 -3169.96 0.
-125.798 -249.658 0.
-7.34863 -11.38 0.
-40.7567 -55.4911 0.
-0.235696 -2.67577 0.
-0.0371233 -2.43672 0.
-0.0115471 -0.146088 0.
-1.31282 -4.22557 0.
-872.75 -2156.76 0.
-0.247326 -6.0606 0.
8.12171 21.5043 0.
-0.350343 -29.6545 0.
10.5825 27.7628 0.
4.96182 13.5369 0.
10.5839 29.1398 0.
14.9074 40.6608 0.
17.7905 47.592 0.
-0.787062 -61.0237 0.
-2.07875 -54.5066 0.
-39.022 -101.839 0.
-582.516 -1420.14 0.
-2.11583 -5.22385 0.
-2.88514 -71.8202 0.
-708.793 -1581.81 0.
32.8301 79.8426 0.
-19.6171 -46.9474 0.
-992.924 -1578.41 0.
45.1783 99.9407 0.
-68.2851 -116.07 0.
3.33932 6.63127 0.
65.4839 124.421 0.
-24.2853 -128.154 0.
-1093.48 -2162.29 0.
49.1058 118.112 0.
32.2266 73.4905 0.
-2.64819 -6.53088 0.
14.7223 38.6027 0.
-9.08593 -22.9554 0.
7.14372 18.743 0.
2.67397 6.73357 0.
1.13361 3.12333 0.
20.1629 55.0392 0.
21.5035 58.3893 0.
-25.0088 -63.0391 0.
10.8213 29.9728 0.
-43.3514 -115.162 0.
-58.2576 -152.623 0.
4.53982 12.1465 0.
-546.31 -1376.2 0.
7.2776 16.1405 0.
4.31524 11.1693 0.
-10.0645 -27.8571 0.
-0.0545362 -1.94601 0.
-1453.28 -3465.31 0.
0.123148 0.317051 0.
-1457.69 -3186.62 0.
-9.48668 -20.7133 0.
-1.10566 -2.99455 0.
-67.5331 -158.821 0.
-4.13962 -11.4272 0.
-21.9715 -21.9264 0.
-11.7665 -11.5517 0.
-7.40305 -12.2592 0.
-26.0548 -38.1005 0.
-17.9241 -19.0552 0.
-13.1163 -10.1738 0.
-169.02 -337.752 0.
-35.6094 -40.2482 0.
-213.353 -433.726 0.
-33.4246 -35.9965 0.
-29.144 -25.17 0.
-356.779 -903.456 0.
-21.6336 -18.0214 0.
-14.1193 -8.82966 0.
-325.069 -859.997 0.
-103.076 -248.271 0.
-34.6982 -56.8271 0.
-339.932 -708.845 0.
-283.125 -565.025 0.
-50.9202 -39.1132 0.
-176.864 -359.262 0.
-286.914 -651.944 0.
-13.559 -8.23173 0.
-57.1023 -102.541 0.
-352.072 -911.962 0.
-4.94883 -4.0935 0.
-8.97332 -7.39935 0.
-313.49 -820.336 0.
-14.1083 -13.1392 0.
-14.4999 -13.4874 0.
-144.038 -312.834 0.
-24.1282 -10.2181 0.
-34.4766 -39.9988 0.
-12.7396 -4.7017 0.
-20.3075 -13.167 0.
-32.0224 -39.7603 0.
-21.4559 -18.8423 0.
-0.175424 -0.0639478 0.
0.303334 0.0410905 0.
0.00184412 0.07779 0.
-37.4402 -97.8968 0.
0.635148 1.1855 0.
-1256.34 -2349.32 0.
-0.000133308 -0.0797827 0.
-1163.78 -2647.63 0.
0.394213 1.03526 0.
-0.518035 -7.80181 0.
-1.28102 -5.33373 0.
-109.757 -289.391 0.
-6.52179 -17.3081 0.
-0.270739 -14.1935 0.
-0.123325 -12.5911 0.
-707.204 -1846.93 0.
9.52138 25.9704 0.
-0.520865 -1.42532 0.
-164.866 -450.367 0.
-1.24978 -49.9606 0.
11.5254 30.4068 0.
-1.00172 -2.50518 0.
0.839245 2.26235 0.
-381.73 -979.014 0.
-2.15067 -5.282 0.
-980.956 -2463.01 0.
30.6377 72.3124 0.
-7.9522 -139.932 0.
16.591 39.943 0.
-216.935 -343.737 0.
-427.215 -807.35 0.
-4.24701 -35.3651 0.
-227.367 -411.732 0.
-24.1019 -116.679 0.
54.8918 104.832 0.
-469.313 -936.559 0.
21.2775 51.3372 0.
-3.9045 -8.86771 0.
-7.81774 -19.3247 0.
13.0999 34.0821 0.
-10.9795 -27.2663 0.
10.4031 26.9271 0.
-617.183 -1529.86 0.
20.4353 56.4399 0.
-9.84494 -26.5499 0.
-12.153 -32.5499 0.
-29.3111 -72.5267 0.
-0.0115829 -15.0693 0.
-72.5835 -190.935 0.
-224.538 -590.755 0.
-7.43094 -19.3403 0.
-289.247 -741.178 0.
-5.81688e-05 -21.0597 0.
-0.03399 -1.2226 0.
-872.063 -2023.2 0.
-0.0762717 -12.3879 0.
-26.1483 -67.095 0.
0.849597 2.30784 0.
1.75777 4.83116 0.
-0.0723054 -1.128 0.
-0.00181455 -0.596114 0.
-34.5707 -95.7289 0.
-0.0471957 -0.12246 0.
-44.9756 -35.0978 0.
-35.6203 -20.9246 0.
-29.3979 -20.2501 0.
-22.248 -31.3468 0.
-17.5244 -18.9934 0.
-11.2524 -12.1484 0.
-33.5113 -34.0327 0.
-26.5777 -24.3841 0.
-41.5698 -47.0178 0.
-34.855 -29.5645 0.
-31.5625 -21.3759 0.
-32.4567 -41.6228 0.
-20.4835 -15.2876 0.
-12.0292 -6.82596 0.
-120.842 -246.343 0.
-34.3321 -46.2278 0.
-36.2458 -53.1305 0.
-111.917 -177.193 0.
-87.8836 -117.787 0.
-36.0272 -18.5527 0.
-60.8263 -42.8231 0.
-131.445 -203.031 0.
-21.0268 -10.6866 0.
-26.698 -10.7654 0.
-68.8722 -115.149 0.
-8.75602 -6.9069 0.
-13.7295 -9.87339 0.
-17.9341 -16.2635 0.
-14.1355 -11.741 0.
-14.93 -15.2496 0.
-32.2961 -66.1057 0.
-20.2792 -7.67168 0.
-30.0395 -30.3418 0.
-24.0947 -8.70758 0.
-28.8365 -14.2167 0.
-38.149 -35.5446 0.
-30.8546 -25.2368 0.
-2.761 -1.1825 0.
-0.00819599 -0.000213899 0.
0.0224328 0.858894 0.
0.00976006 0.467819 0.
1.23056 2.78386 0.
0.679094 1.25595 0.
3.19581 8.69969 0.
0.113414 0.290539 0.
5.00353 12.6541 0.
-1213.39 -2915.75 0.
-0.33496 -18.4889 0.
-105.444 -286.814 0.
-4.85604 -12.9627 0.
-471.561 -1227.25 0.
9.38015 25.4587 0.
14.6305 40.4686 0.
-47.206 -128.664 0.
-11.0476 -30.0068 0.
16.42 45.4451 0.
-1017.14 -2604.72 0.
-0.944508 -32.4388 0.
-18.0025 -44.4324 0.
19.5152 52.0057 0.
-3.20284 -77.9537 0.
-0.178613 -15.502 0.
-8.64151 -21.5929 0.
-6.9825 -95.2559 0.
24.7343 60.5862 0.
-61.6157 -123.076 0.
-25.1272 -72.1714 0.
-1285.37 -2359.45 0.
-445.507 -842.997 0.
-92.912 -149.616 0.
-20.6434 -39.1367 0.
-16.0057 -76.3225 0.
-101.378 -204.293 0.
40.8124 97.4752 0.
11.6253 26.4015 0.
2.50379 6.21666 0.
-1.45557 -48.374 0.
-231.798 -568.572 0.
-2.3153 -67.0682 0.
15.1738 39.8356 0.
20.6888 52.7503 0.
-48.7544 -129.847 0.
9.04206 24.247 0.
-218.509 -597.109 0.
-2.09054 -5.47569 0.
-314.844 -818.986 0.
20.2837 56.0378 0.
0.386582 1.00501 0.
-212.287 -548.573 0.
-0.000670534 -25.7257 0.
-965.624 -2340.73 0.
10.1389 26.8343 0.
-0.0159257 -2.77547 0.
-0.180721 -13.1963 0.
1.07063 2.96001 0.
-0.0968645 -7.69029 0.
-1145.21 -2641.89 0.
-0.208092 -2.23042 0.
-1214.9 -2160.19 0.
-29.1422 -68.0568 0.
-1351.94 -2511.11 0.
-30.0468 -58.8962 0.
0.084178 0.141621 0.
-1416.7 -3727.65 0.
-27.1274 -65.1969 0.
-15.253 -37.6828 0.
-1303.3 -3054 0.
-40.2108 -43.8093 0.
-1037.51 -2427.07 0.
-327.969 -717.058 0.
-35.0181 -41.5682 0.
-1018.58 -2646.1 0.
-244.299 -593.274 0.
-26.5916 -35.9048 0.
-715.278 -1918.44 0.
-323.083 -861.897 0.
-28.0893 -42.4808 0.
-518.817 -1337.43 0.
-417.136 -1073.62 0.
-108.026 -213.556 0.
-364.693 -930.652 0.
-586.227 -1549.75 0.
-30.5815 -26.8486 0.
-312.012 -792.951 0.
-819.522 -2130.86 0.
-16.3346 -12.9061 0.
-202.756 -504.508 0.
-1094.16 -2907.7 0.
-21.529 -23.987 0.
-284.954 -563.618 0.
-1012.27 -2219.78 0.
-15.2599 -7.50466 0.
-1312.62 -3344.51 0.
-26.3922 -22.0825 0.
-35.4803 -51.0581 0.
-1074.92 -2415.07 0.
-14.5893 -16.2222 0.
-1681.45 -3781.27 0.
0.0304708 1.21223 0.
-0.0531397 -1.29036 0.
-1259.74 -2992.64 0.
0.131757 0.299283 0.
2.09273 4.37715 0.
-0.0193029 -1.90811 0.
-0.037527 -2.53488 0.
-0.180427 -11.289 0.
-33.7723 -86.2668 0.
-1.8672 -5.12815 0.
-461.328 -1270.79 0.
-0.528134 -38.1955 0.
-71.1952 -194.075 0.
-0.218491 -28.4422 0.
-4.47452 -12.3495 0.
-184.247 -501.67 0.
-45.9053 -123.802 0.
22.7829 61.7269 0.
-1.73332 -56.827 0.
-1254.56 -3202.57 0.
-482.222 -1179.66 0.
22.7518 60.017 0.
12.8164 31.9118 0.
22.5531 60.6336 0.
-19.8924 -49.8186 0.
-18.077 -42.9161 0.
47.6515 116.925 0.
38.2057 74.9201 0.
69.1873 110.946 0.
-942.049 -1695.76 0.
7.74685 40.809 0.
23.7707 38.389 0.
-28.6013 -54.4856 0.
-26.6027 -122.001 0.
-55.5365 -113.047 0.
-5.63477 -13.5131 0.
6.99136 15.9285 0.
-294.164 -734.686 0.
24.4974 63.0022 0.
-1068.98 -2602.04 0.
-0.415785 -1.09605 0.
6.3797 16.7036 0.
18.1653 46.6364 0.
-204.502 -538.773 0.
-595.989 -1598.58 0.
10.8549 29.6835 0.
24.6595 64.8627 0.
-739.502 -1902.06 0.
-1.12905 -58.2468 0.
3.06848 7.96153 0.
-314.457 -816.129 0.
1.87702 5.08956 0.
-217.342 -543.971 0.
-0.114157 -11.0096 0.
0.00409415 0.689653 0.
7.59644 20.603 0.
-1246.48 -3094.06 0.
2.52982 6.97978 0.
-97.1548 -232.203 0.
-0.0890786 -2.62866 0.
-0.0943793 -1.09989 0.
0.523962 1.40212 0.
-0.00854256 -1.31325 0.
0.0531941 0.124023 0.
0.265757 0.478127 0.
-53.9588 -139.739 0.
-28.0048 -73.4525 0.
-18.5896 -44.8029 0.
-40.198 -48.4316 0.
-40.3194 -44.3538 0.
-68.015 -130.948 0.
-35.5419 -53.9434 0.
-24.5068 -30.891 0.
-185.958 -447.301 0.
-30.9965 -48.4401 0.
-27.505 -36.2237 0.
-278.809 -719.874 0.
-28.0135 -45.6266 0.
-25.0076 -34.5398 0.
-234.984 -601.092 0.
-158.652 -382.365 0.
-42.75 -50.3912 0.
-73.0816 -126.506 0.
-260.72 -664.497 0.
-25.5831 -30.1451 0.
-18.3266 -15.6552 0.
-177.206 -444.385 0.
-20.7267 -14.4106 0.
-20.5776 -17.2047 0.
-185.889 -457.521 0.
-27.808 -29.026 0.
-21.4761 -16.8743 0.
-22.8046 -19.6232 0.
-6.83565 -5.97689 0.
-25.9976 -34.6376 0.
-11.9108 -11.2558 0.
-13.9066 -12.9944 0.
-29.2389 -58.1855 0.
0.226135 0.24525 0.
-8.35686 -8.9554 0.
0.268697 2.41614 0.
-0.00281425 -1.38662 0.
-2.72442 -6.89023 0.
1.35758 3.46291 0.
-1071.43 -2554.96 0.
2.15948 5.93184 0.
-0.0441024 -5.86704 0.
-0.0230518 -4.54953 0.
-73.9198 -194.715 0.
-7.97051 -21.8865 0.
-315.187 -865.924 0.
-3.90532 -10.5044 0.
-82.2898 -223.641 0.
-0.199719 -28.1324 0.
14.9872 41.2445 0.
-0.233481 -69.3504 0.
-820.543 -2199.48 0.
-11.6791 -31.7211 0.
-1.4738 -55.5581 0.
17.8655 47.8559 0.
-955.82 -2323.37 0.
-63.3674 -153.341 0.
-61.7605 -152.249 0.
-1.19417 -89.9846 0.
-6.67113 -16.7765 0.
-229.816 -549.303 0.
-20.0133 -49.1342 0.
-7.44181 -14.3911 0.
44.2096 72.2178 0.
-11.1482 -108.562 0.
2.44658 32.2471 0.
34.3849 57.0188 0.
11.6975 22.4275 0.
74.8597 137.99 0.
-39.4657 -81.1586 0.
8.16864 19.6598 0.
-273.938 -648.584 0.
-793.049 -1992.88 0.
-2.06512 -60.357 0.
36.7003 93.0612 0.
-3.85671 -10.2002 0.
-12.6868 -33.1713 0.
-37.9369 -98.0293 0.
-827.74 -2162.56 0.
-8.48565 -23.1933 0.
-7.95591 -21.7677 0.
-37.6688 -99.4747 0.
14.842 39.9058 0.
-4.87003 -12.9676 0.
-57.5963 -149.054 0.
-0.198507 -54.6127 0.
12.1953 33.0319 0.
-191.527 -489.463 0.
9.2129 25.1484 0.
-1060.94 -2671.77 0.
8.3898 22.9811 0.
1.0619 2.7027 0.
2.44495 6.76648 0.
-24.5372 -63.2198 0.
0.749833 2.03584 0.
-0.0151561 -0.286855 0.
0.00167473 0.22201 0.
-0.0093644 -2.01848 0.
-1285.21 -3457.74 0.
-9.88494 -27.3183 0.
-877.339 -1697.8 0.
-48.7037 -95.2691 0.
-56.8576 -126.332 0.
-1150.29 -2981.31 0.
-35.177 -58.4351 0.
-926.561 -2054.75 0.
-227.041 -469.739 0.
-24.8202 -34.7514 0.
-1043.18 -2775.82 0.
-112.103 -240.341 0.
-27.6968 -30.7421 0.
-843.064 -2194.58 0.
-294.819 -757.396 0.
-31.6406 -44.1634 0.
-593.454 -1585.01 0.
-479.415 -1290.16 0.
-50.7379 -81.6034 0.
-372.503 -992.016 0.
-707.261 -1914.47 0.
-27.3235 -34.5087 0.
-217.29 -569.649 0.
-920.536 -2455.86 0.
-24.3529 -25.4167 0.
-21.1981 -18.5702 0.
-948.871 -2444.63 0.
-22.6965 -15.266 0.
-1227.8 -2724.61 0.
-10.2839 -14.1821 0.
-2.14662 -2.81956 0.
-1085.25 -2856.85 0.
-0.00375058 -0.0423884 0.
-18.1108 -31.3421 0.
-1023.37 -2513.05 0.
-234.217 -510.452 0.
-0.176177 -0.170054 0.
-0.207489 -3.6147 0.
-0.00556857 -3.77807 0.
0.203391 0.548308 0.
-0.0506133 -4.25584 0.
-7.15945 -17.9601 0.
6.33535 17.4218 0.
-855.492 -2149.71 0.
-0.0279981 -22.5688 0.
-369.42 -991.114 0.
-9.3281 -25.6184 0.
10.2731 28.2074 0.
13.3057 35.8659 0.
-137.35 -371.991 0.
-171.755 -473.786 0.
-333.072 -913.715 0.
-0.194819 -61.5059 0.
-10.5364 -28.7107 0.
23.876 64.9942 0.
-7.37712 -19.3694 0.
-15.5879 -41.7875 0.
32.0895 80.9453 0.
-213.148 -517.59 0.
-150.75 -369.112 0.
-0.922799 -67.8675 0.
-50.3755 -127.342 0.
-526.519 -1268.79 0.
-22.7278 -55.7886 0.
2.52295 5.09924 0.
-23.5757 -77.9053 0.
64.1275 141.672 0.
-0.00076222 -0.319487 0.
-8.1175 -28.1257 0.
-677.612 -1308.86 0.
-18.5617 -33.8985 0.
-103.062 -231.186 0.
44.2744 106.882 0.
4.17834 9.91746 0.
9.49608 24.5398 0.
28.5179 75.4516 0.
-14.2349 -36.3322 0.
29.2061 77.4683 0.
31.8694 83.2876 0.
-95.8839 -249.268 0.
-139.437 -358.585 0.
-9.85374 -26.9247 0.
-10.9913 -30.0882 0.
-448.254 -1188.83 0.
-0.720929 -63.512 0.
-46.3681 -124.109 0.
-933.277 -2411.01 0.
11.4095 31.2144 0.
-70.11 -189.681 0.
-0.00200424 -45.416 0.
-0.161401 -36.3974 0.
-68.9099 -177.185 0.
-0.0128553 -4.29092 0.
1.70225 4.43379 0.
5.26868 14.5919 0.
1.35614 3.64293 0.
-20.9405 -45.6097 0.
-957.803 -2289.77 0.
-0.351367 -0.890583 0.
-0.0495403 -3.37933 0.
-70.5102 -193.103 0.
-0.00988085 -0.437065 0.
-10.2489 -20.0027 0.
-2.72287 -6.09596 0.
-13.7755 -35.8692 0.
-22.1977 -60.8061 0.
-3.79921 -5.14389 0.
0.0322561 0.0280164 0.
-35.3276 -60.8496 0.
-20.0735 -26.9459 0.
-182.605 -431.37 0.
-27.3712 -33.1464 0.
-23.0341 -23.2912 0.
-76.2982 -170.514 0.
-24.1967 -33.7941 0.
-22.6899 -28.3381 0.
-82.7136 -169.217 0.
-41.4839 -64.7742 0.
-21.8125 -36.5108 0.
-19.1973 -30.7943 0.
-71.2731 -179.867 0.
-21.8979 -28.6973 0.
-22.9777 -30.6442 0.
-54.0409 -123.752 0.
-20.8572 -20.9967 0.
-16.1051 -12.1278 0.
-14.5336 -10.2139 0.
-3.08555 -3.37947 0.
-189.377 -448.904 0.
-3.47251 -7.30312 0.
-0.00409675 -0.0333749 0.
-7.48269 -20.4455 0.
0.0101713 0.0807461 0.
0.00177137 0.00581307 0.
-28.3132 -67.7774 0.
-0.0187232 -0.477441 0.
-633.501 -1450.06 0.
0.807103 2.19823 0.
-1161.13 -2641.6 0.
-0.0803835 -4.13288 0.
-0.00983598 -3.42469 0.
-0.191242 -7.805 0.
9.05542 24.9085 0.
12.7702 35.2775 0.
-10.535 -27.439 0.
2.00729 5.27285 0.
-19.209 -52.781 0.
-10.9455 -30.0187 0.
-3.84386 -10.6342 0.
-192.987 -520.721 0.
-179.376 -494.564 0.
-764.706 -2092.75 0.
13.3354 36.6734 0.
5.2733 14.4003 0.
-598.951 -1634.41 0.
-45.443 -120.161 0.
21.6853 58.1731 0.
16.3625 41.3829 0.
-336.783 -870.355 0.
-528.153 -1289.01 0.
-13.3458 -33.8226 0.
-159.996 -406.92 0.
-322.46 -784.749 0.
-189.933 -465.762 0.
-22.0777 -44.601 0.
-12.3486 -43.8102 0.
-19.219 -162.613 0.
-656.829 -1740.18 0.
11.0527 19.1973 0.
-305.688 -594.87 0.
-18.1644 -108.422 0.
-6.15423 -13.8026 0.
13.874 33.5695 0.
-142.191 -373.039 0.
-28.5634 -73.9766 0.
23.3449 61.8821 0.
34.0389 87.4311 0.
23.6117 62.775 0.
-399.76 -1046.62 0.
-495.751 -1296.87 0.
10.7222 27.7478 0.
-0.446507 -76.8894 0.
0.258539 0.708161 0.
-96.8914 -266.662 0.
1.76499 4.77095 0.
-256.515 -689.72 0.
13.9378 37.5957 0.
-7.1177 -19.5378 0.
-643.3 -1738.71 0.
-0.490741 -1.35858 0.
-153.26 -400.718 0.
-0.145042 -34.9248 0.
11.0789 30.5173 0.
1.25668 3.31202 0.
-699.224 -1679.88 0.
-835.652 -1613.39 0.
-0.219387 -3.44336 0.
0.00403693 7.34202 0.
0.608806 1.59059 0.
-0.00292201 -0.420017 0.
-34.1139 -94.3609 0.
-0.0903361 -2.01971 0.
-0.0211344 -0.0634153 0.
-0.0236984 -0.202519 0.
0.0110702 0.0295592 0.
-5.26991 -10.2443 0.
0.14136 0.180085 0.
0.255127 0.259027 0.
-31.6585 -53.3531 0.
-16.288 -18.5498 0.
-32.3485 -47.1512 0.
-26.4603 -33.0759 0.
-22.8312 -24.2605 0.
-20.9699 -34.5475 0.
-18.2123 -25.6543 0.
-17.683 -22.3776 0.
-38.7582 -50.7029 0.
-35.7751 -44.1784 0.
-13.9772 -27.2245 0.
-11.6017 -22.0929 0.
-12.9405 -25.4255 0.
-20.9286 -26.0852 0.
-20.9469 -27.4647 0.
-21.1546 -29.8686 0.
-22.6047 -25.5521 0.
-17.4119 -16.3675 0.
-14.9374 -13.0026 0.
0.000294955 0.0494941 0.
-13.9937 -23.0172 0.
-0.000169797 -0.0789075 0.
-0.000427047 -0.00967398 0.
0.0548131 0.121785 0.
0.00410447 0.022892 0.
-0.0539737 -0.164057 0.
-14.4685 -33.8923 0.
-0.000425868 -1.38794 0.
0.166565 0.424483 0.
-0.0075968 -2.89266 0.
-0.220521 -6.20155 0.
4.68369 12.88 0.
-924.746 -2316.77 0.
0.461742 1.25575 0.
-0.000139951 -0.0428632 0.
14.1462 39.1399 0.
-41.9528 -110.613 0.
-150.195 -415.417 0.
-65.1763 -179.228 0.
-11.0903 -30.374 0.
-0.856267 -2.36258 0.
-450.416 -1212.02 0.
-212.101 -584.495 0.
7.90701 21.8611 0.
8.1471 22.4156 0.
2.86495 7.83914 0.
-121.04 -330.291 0.
-306.852 -816.917 0.
2.25209 6.04643 0.
-2.84655 -73.8563 0.
36.2724 94.5319 0.
-208.826 -508.947 0.
-205.322 -521.491 0.
-181.45 -464.934 0.
-134.885 -348.527 0.
-23.0052 -56.3122 0.
7.06993 14.2733 0.
44.2126 97.5616 0.
-0.581774 -1.23675 0.
-16.7364 -65.2474 0.
-7.32978 -12.952 0.
53.7495 113.992 0.
-19.8985 -39.5905 0.
15.9179 35.7272 0.
-89.0345 -215.803 0.
-54.0076 -141.466 0.
-48.8234 -126.714 0.
22.9978 61.0316 0.
3.09811 8.00998 0.
5.54111 14.7572 0.
-770.936 -2024.83 0.
-278.576 -755.19 0.
-66.3701 -172.858 0.
-0.845575 -2.30936 0.
-110.413 -302.7 0.
12.9967 35.7821 0.
-14.9575 -40.5249 0.
-453.526 -1244.51 0.
19.743 53.4877 0.
-0.193948 -61.1687 0.
-3.33568 -9.21721 0.
-0.0206398 -40.9982 0.
-485.468 -1270.98 0.
7.40213 20.2833 0.
-0.0480997 -21.0506 0.
11.2805 30.4464 0.
-25.6508 -64.9026 0.
-0.0344605 -12.1307 0.
-0.120393 -2.81225 0.
-0.00784554 -20.691 0.
0.576382 1.53611 0.
-4.53606 -11.0952 0.
-860.271 -2287.48 0.
-0.00228081 -1.74617 0.
-873.935 -1624.93 0.
-25.409 -42.1834 0.
-0.191264 -0.331254 0.
-1054.14 -2823.81 0.
-11.729 -24.9166 0.
-0.00885735 -0.0226574 0.
-1260.81 -2760.29 0.
-28.2263 -51.0908 0.
-857.102 -2200.36 0.
-35.9952 -59.8596 0.
-38.5154 -69.8118 0.
-888.125 -2343.47 0.
-122.641 -309.712 0.
-20.5051 -40.4864 0.
-622.71 -1624.02 0.
-450.319 -1203.86 0.
-32.5471 -66.074 0.
-239.466 -652.191 0.
-772.635 -2123.35 0.
-29.623 -44.0751 0.
-43.0115 -88.2406 0.
-927.78 -2475.23 0.
-21.1645 -16.7446 0.
-21.1245 -16.3856 0.
-1045.11 -2268.4 0.
-3.93702 -7.59885 0.
-1042.34 -2560.81 0.
0.0506716 0.349791 0.
0.0017584 0.125455 0.
-1020.08 -2569.75 0.
-18.6758 -42.8853 0.
-31.7399 -69.5645 0.
-1014.24 -2179.36 0.
1.24592 3.43043 0.
-794.979 -2044.59 0.
-0.00405906 -3.9286 0.
2.42637 6.3576 0.
7.00502 19.3984 0.
4.42558 11.4783 0.
-0.0772242 -16.4662 0.
-782.571 -2060.41 0.
-0.00721905 -23.3544 0.
-520.874 -1384.3 0.
-104.916 -289.911 0.
16.2792 44.9944 0.
-176.784 -483.489 0.
8.28385 22.8154 0.
-41.7392 -115.521 0.
-218.414 -601.595 0.
-3.46127 -9.57164 0.
-549.98 -1514.04 0.
-1.4178 -3.8865 0.
-69.7317 -189.988 0.
7.84161 21.1548 0.
-8.52938 -22.9195 0.
14.1808 36.1187 0.
-1.92504 -82.9504 0.
-159.156 -400.286 0.
-331.322 -842.983 0.
-84.266 -217.841 0.
-112.728 -290.507 0.
49.729 121.344 0.
-49.7235 -100.314 0.
40.5806 89.986 0.
34.2073 80.0488 0.
11.2926 18.6423 0.
-5.23444 -43.3369 0.
3.86049 7.95941 0.
-27.4336 -54.139 0.
50.4654 113.414 0.
-451.778 -1096.47 0.
-110.663 -289.346 0.
-132.453 -344.454 0.
27.7814 73.7564 0.
-88.0212 -229.096 0.
-1.5672 -96.8192 0.
-64.2879 -175.556 0.
-94.9312 -257.486 0.
16.1381 43.2484 0.
-163.991 -447.817 0.
-3.78878 -10.4173 0.
11.4305 31.484 0.
-59.793 -164.002 0.
-38.4278 -105.514 0.
-64.4763 -175.344 0.
-476.286 -1311.3 0.
-0.0367644 -49.9793 0.
-6.03536 -16.6368 0.
9.7479 26.9656 0.
13.9814 38.2613 0.
-653.925 -1744.88 0.
5.25653 14.219 0.
4.13807 10.796 0.
12.7331 35.2439 0.
0.169899 4.85237 0.
-0.269077 -22.756 0.
-951.601 -2259.6 0.
-0.0836077 -4.27201 0.
0.192455 0.523948 0.
1.57735 4.35149 0.
0.655478 1.10075 0.
0.0818046 0.147185 0.
0.297915 0.585145 0.
-31.771 -69.6324 0.
-0.0138532 -0.250357 0.
-0.000824494 -0.0663279 0.
-24.083 -45.1992 0.
-8.75203 -18.8321 0.
-29.1355 -56.2834 0.
-21.0654 -43.1032 0.
-19.8659 -44.1271 0.
-20.9687 -44.4876 0.
-15.0037 -31.1437 0.
-10.8598 -22.1601 0.
-26.8753 -37.223 0.
-29.4187 -43.8344 0.
-23.2094 -47.8756 0.
-20.9803 -43.5387 0.
-25.4517 -55.163 0.
-29.8035 -48.9548 0.
-23.2273 -35.9608 0.
-16.8751 -23.4399 0.
-22.2986 -22.4007 0.
-25.7729 -28.5094 0.
-32.1062 -45.8704 0.
-3.02289 -1.25147 0.
-7.85051 -18.6978 0.
0.00588265 0.0136433 0.
-0.0346821 -0.4763 0.
0.0972954 0.269461 0.
-12.1 -30.9161 0.
-2.36282 -5.7777 0.
2.46714 6.54986 0.
1.38293 3.82978 0.
0.620117 1.65411 0.
5.29489 14.1119 0.
-772.047 -1706.64 0.
4.28742 11.872 0.
6.90953 18.3461 0.
1.67447 4.60503 0.
-0.00145516 -27.6941 0.
11.3823 31.2115 0.
14.5191 40.1714 0.
-149.68 -413.094 0.
19.7429 52.0798 0.
-357.531 -976.476 0.
3.72869 10.249 0.
-7.80518 -21.5978 0.
-347.381 -956.352 0.
13.3768 36.9996 0.
-13.2184 -36.5077 0.
-211.59 -583.204 0.
-84.1523 -228.96 0.
-11.9003 -32.3085 0.
5.76147 15.496 0.
-11.327 -30.8173 0.
10.1666 26.8422 0.
-112.169 -282.622 0.
-191.16 -499.362 0.
-82.1826 -214.511 0.
-50.7289 -130.375 0.
-8.88964 -21.5974 0.
14.3927 29.0086 0.
-37.125 -82.8547 0.
37.348 81.3989 0.
51.0675 78.7578 0.
49.0658 102.013 0.
1.68089 3.36486 0.
-6.72499 -13.1646 0.
-270.105 -607.826 0.
-3.84097 -10.0942 0.
-59.8254 -156.1 0.
-16.774 -45.0026 0.
10.9442 29.0465 0.
-35.5267 -96.4658 0.
-22.5303 -60.1218 0.
7.15519 19.4837 0.
-45.4288 -123.286 0.
-14.9189 -40.0315 0.
-502.511 -1372.15 0.
11.2321 30.9198 0.
-75.8509 -209.018 0.
18.7356 51.8801 0.
-49.7018 -136.541 0.
-228.304 -630.728 0.
-139.36 -385.009 0.
-0.0317107 -61.0131 0.
-502.144 -1386.32 0.
-0.883117 -2.44487 0.
19.0007 51.9054 0.
-0.990313 -2.73036 0.
8.57663 23.2405 0.
-350.894 -930.919 0.
-0.000396466 -21.4914 0.
-793.742 -2018.43 0.
-0.145524 -24.316 0.
-26.9715 -68.4692 0.
2.39161 6.52831 0.
-0.00192197 -2.30972 0.
-0.0016604 -0.205071 0.
-0.20504 -3.56787 0.
0.647284 1.27705 0.
-28.2004 -62.4668 0.
-537.538 -1486.2 0.
-5.60535 -15.3437 0.
-0.803653 -2.22132 0.
-817.496 -2154.84 0.
-10.4582 -24.4767 0.
-884.857 -1897.21 0.
-26.0589 -49.262 0.
-28.0566 -55.3033 0.
-824.87 -2161.9 0.
-30.0576 -62.7621 0.
-35.7962 -84.5778 0.
-559.803 -1492.79 0.
-378.929 -1021.35 0.
-42.1759 -97.7079 0.
-139.96 -377.268 0.
-725.732 -1994.6 0.
-24.2578 -36.7228 0.
-20.773 -30.5676 0.
-885.43 -2311.93 0.
-28.4147 -39.8974 0.
-19.3511 -20.0224 0.
-868.942 -1733.04 0.
-4.19531 -5.70932 0.
-809.575 -2184.35 0.
0.316916 0.861356 0.
0.253373 0.693634 0.
-583.455 -1567.97 0.
-6.96938 -18.9424 0.
0.0642508 0.169579 0.
0.0126934 0.605676 0.
0.000479784 1.35386 0.
0.973059 2.64392 0.
3.63681 9.8784 0.
8.96942 24.7552 0.
-161.35 -432.294 0.
-0.034846 -19.3819 0.
-0.0834022 -39.4117 0.
-2.21222 -6.1265 0.
13.8409 37.95 0.
4.64779 12.8691 0.
-276.738 -762.587 0.
-1.02967 -51.3872 0.
11.4391 31.6734 0.
-6.84842 -18.7821 0.
-5.18569 -14.3634 0.
-9.47395 -26.211 0.
3.87323 10.7169 0.
-1.55752 -4.30404 0.
-255.545 -704.898 0.
-141.555 -384.642 0.
6.92484 18.8365 0.
-344.285 -936.18 0.
-125.654 -341.947 0.
-19.2512 -51.1016 0.
34.0832 92.4601 0.
35.1105 91.8764 0.
11.9265 32.003 0.
-258.612 -662.724 0.
6.07786 15.7893 0.
-150.573 -303.353 0.
-131.519 -295.609 0.
32.5195 65.6349 0.
-25.8751 -57.9264 0.
21.422 42.744 0.
-19.8952 -105.328 0.
27.8581 54.0919 0.
-28.6601 -64.6048 0.
41.5609 109.244 0.
-54.2695 -141.284 0.
21.9624 58.956 0.
-303.585 -804.77 0.
-60.7499 -164.89 0.
-534.453 -1426.54 0.
3.18375 8.6844 0.
-0.795933 -2.16118 0.
-83.0038 -223.009 0.
2.4915 6.72273 0.
-10.9849 -30.272 0.
-125.904 -347.092 0.
10.289 28.4963 0.
-73.7933 -202.827 0.
-321.994 -889.577 0.
-6.53434 -18.0519 0.
-7.89928 -21.8614 0.
15.666 43.3848 0.
-5.252 -14.5456 0.
-447.957 -1234.68 0.
12.5044 34.5528 0.
11.9872 32.5262 0.
12.0773 33.1305 0.
-12.0454 -33.1328 0.
-0.00840148 -25.7947 0.
3.87078 10.6372 0.
-2.27613 -5.96658 0.
2.93011 8.08372 0.
-663.397 -1423.51 0.
-14.121 -34.374 0.
-0.0873445 -7.24201 0.
-914.017 -2258.59 0.
-0.00638915 -0.653216 0.
-29.1343 -79.7062 0.
-0.517303 -1.41177 0.
0.0172423 0.0476186 0.
-16.2231 -41.7974 0.
-0.00167739 -0.00451423 0.
-20.7816 -42.8571 0.
-13.7854 -28.9481 0.
-9.61124 -20.8057 0.
-15.6153 -32.0223 0.
-9.29762 -21.5556 0.
-10.092 -26.0711 0.
-24.5962 -46.6114 0.
-17.7178 -29.9046 0.
-24.5641 -48.461 0.
-13.8263 -24.0452 0.
-13.9004 -26.3064 0.
-13.7702 -23.5727 0.
-11.6373 -19.335 0.
-14.4017 -26.1906 0.
-21.9193 -31.2331 0.
-11.4656 -9.43536 0.
-6.51376 -3.11397 0.
0.0302818 0.083386 0.
-10.1568 -20.6534 0.
0.000527285 0.169677 0.
-0.00507749 -0.981317 0.
0.0165192 0.368896 0.
0.722002 1.75958 0.
-873.856 -1834.75 0.
-0.00140256 -4.33873 0.
-713.328 -1780.54 0.
-0.311658 -25.4047 0.
0.0121816 2.48858 0.
14.6087 40.0606 0.
-44.7617 -121.74 0.
15.7594 42.9788 0.
8.14979 22.4799 0.
7.68094 21.2693 0.
-513.23 -1407.24 0.
-16.1028 -44.5959 0.
-0.596726 -45.0754 0.
-76.5006 -202.551 0.
7.99298 22.1164 0.
-378.488 -1035.94 0.
-0.00218561 -62.3688 0.
8.33914 23.0844 0.
10.0318 27.7711 0.
-5.08255 -14.0522 0.
16.237 44.7078 0.
-293.353 -796.065 0.
-18.8306 -51.3152 0.
-0.840635 -2.28759 0.
-220.527 -600.319 0.
12.273 32.7441 0.
33.3218 90.3391 0.
27.2567 71.4304 0.
21.4638 57.6286 0.
-79.2442 -202.488 0.
15.2794 39.5959 0.
-342.846 -853.64 0.
-659.311 -1494.4 0.
-35.0451 -65.4671 0.
-837.733 -1115.25 0.
-77.5692 -148.58 0.
28.0703 52.8793 0.
-87.9471 -169.405 0.
-11.3895 -25.7307 0.
15.3111 40.2526 0.
-42.7983 -111.133 0.
30.4177 81.6995 0.
-903.21 -2388.9 0.
-221.508 -600.992 0.
-125.693 -335.615 0.
1.58724 4.33654 0.
-18.4961 -50.2442 0.
-190.636 -512.881 0.
20.7047 55.9328 0.
-22.3369 -61.6151 0.
-170.029 -468.927 0.
-11.4932 -31.834 0.
-117.987 -324.454 0.
24.7301 68.4946 0.
-47.4791 -131.168 0.
-347.525 -961.775 0.
5.98274 16.5629 0.
-1.54924 -4.29111 0.
-4.46443 -12.2972 0.
-0.0202741 -49.7825 0.
11.7522 31.9225 0.
-23.801 -64.862 0.
-32.9808 -90.7985 0.
-1.65948 -4.59195 0.
2.55728 7.04562 0.
5.81715 15.8761 0.
-579.906 -1445.55 0.
6.70247 18.2328 0.
1.66587 4.18767 0.
1.67282 4.54932 0.
-0.153499 -5.61016 0.
2.51533 6.9657 0.
-23.4108 -63.8535 0.
0.325254 0.886736 0.
-0.0126907 -0.0350192 0.
-4.36789 -11.9979 0.
0.157725 0.436843 0.
-11.279 -25.8382 0.
-4.18518 -10.2462 0.
-2.6248 -6.73972 0.
-7.2632 -16.1474 0.
-1.72322 -4.48993 0.
-2.66949 -7.387 0.
-11.3054 -24.3866 0.
-6.23199 -11.4943 0.
-16.2125 -29.8436 0.
-14.1978 -26.5408 0.
-13.5783 -26.5435 0.
-9.82301 -10.8178 0.
-10.9109 -10.5529 0.
-12.7556 -13.0269 0.
-17.6199 -27.3299 0.
-12.5328 -14.6555 0.
-10.3288 -9.75302 0.
-0.000416836 -0.0999989 0.
-5.13677 -13.2256 0.
0.000807132 0.765585 0.
-0.00547144 -1.03512 0.
0.0114176 0.339319 0.
0.0346933 1.57745 0.
0.80755 1.84886 0.
0.00441927 3.04766 0.
1.51246 3.97373 0.
10.0528 27.7829 0.
-459.482 -1214.92 0.
-0.0504485 -9.36041 0.
-323.23 -885.429 0.
0.158878 0.43332 0.
-294.853 -816.219 0.
3.22843 8.93816 0.
3.30613 9.14643 0.
-109.424 -303.047 0.
-0.691576 -54.539 0.
-291.92 -774.15 0.
-0.398659 -1.09567 0.
12.163 33.6346 0.
5.97384 16.5421 0.
13.1255 36.3476 0.
-299.46 -829.273 0.
-2.25915 -6.24887 0.
-10.8006 -29.7699 0.
-268.515 -727.841 0.
20.6822 56.4603 0.
-16.255 -44.2509 0.
-322.875 -879.232 0.
-89.6639 -240.306 0.
4.54323 12.3069 0.
17.1163 44.8974 0.
-7.54713 -20.2689 0.
-125.249 -319.076 0.
40.2796 104.033 0.
17.5877 46.9513 0.
-182.294 -368.109 0.
-14.0188 -97.5241 0.
10.1976 18.3077 0.
-867.667 -1590.84 0.
-839.263 -1534.06 0.
-367.44 -702.342 0.
6.33262 15.2606 0.
-114.297 -300.544 0.
-4.99059 -13.2526 0.
8.3608 22.4692 0.
-0.862729 -91.6348 0.
-119.346 -323.646 0.
-44.8918 -124.076 0.
-6.51596 -17.8291 0.
-17.6672 -48.5742 0.
-332.756 -909.507 0.
4.07768 11.2152 0.
-11.7503 -32.4397 0.
-79.9967 -220.149 0.
3.14251 8.70393 0.
-200.184 -550.749 0.
-0.000121506 -60.6531 0.
-60.9752 -168.455 0.
3.7776 10.4625 0.
-8.4556 -23.3971 0.
-82.9164 -229.635 0.
-7.14269 -19.6858 0.
-0.00506655 -52.2477 0.
18.7554 51.9431 0.
-39.5541 -107.615 0.
-407.231 -1121.81 0.
5.5405 15.3323 0.
-650.325 -1743.67 0.
8.30945 22.7353 0.
5.13986 13.2243 0.
-0.0196705 -9.5454 0.
-0.147718 -4.39072 0.
-0.0145764 -2.62661 0.
-405.896 -1118.87 0.
-0.0012164 -1.56347 0.
-646.48 -1552.49 0.
-27.7565 -66.0228 0.
-2.26722 -5.93354 0.
-650.651 -1702.62 0.
-0.00349183 -0.629793 0.
-681.878 -1509.7 0.
-25.1138 -51.5458 0.
-14.3673 -29.4295 0.
-706.86 -1800.16 0.
-24.2083 -53.4554 0.
-27.4491 -64.3305 0.
-444.916 -1208.49 0.
-339.892 -937.014 0.
-78.0349 -204.419 0.
-57.6967 -150.424 0.
-611.442 -1632.41 0.
-38.3279 -84.5696 0.
-19.4067 -26.0866 0.
-744.311 -1982.5 0.
-0.306727 -0.0011378 0.
-26.8273 -31.5403 0.
-691.182 -1303.18 0.
0.00116202 0.208421 0.
-687.4 -1883.87 0.
0.511197 1.40454 0.
0.0212954 0.0541139 0.
-616.409 -1453.48 0.
-90.0079 -188.889 0.
-0.0105909 -0.190462 0.
-0.0641713 -14.9016 0.
1.90496 5.1475 0.
-0.00041922 -21.101 0.
-151.32 -406.772 0.
-0.0304121 -39.0137 0.
10.9281 30.0043 0.
7.64843 20.858 0.
17.133 47.4533 0.
-4.36283 -12.0756 0.
-0.0253484 -51.8327 0.
-409.487 -1134.09 0.
15.9413 42.9006 0.
14.9567 41.1975 0.
-3.94688 -10.8755 0.
-5.64774 -15.6079 0.
-190.927 -528.551 0.
-46.9784 -130.118 0.
-33.9162 -93.9029 0.
-10.0183 -27.7222 0.
-31.9178 -88.059 0.
-198.016 -547.888 0.
-32.4673 -88.7826 0.
-25.3713 -69.6142 0.
-440.575 -1210.22 0.
-40.6645 -111.991 0.
-263.764 -713.734 0.
13.3237 36.6825 0.
-23.1878 -62.2756 0.
28.3593 75.9301 0.
-76.0225 -195.539 0.
24.9964 66.4588 0.
-28.7337 -62.5512 0.
22.7313 48.1288 0.
-434.144 -700.027 0.
-9.30504 -80.8383 0.
6.30127 12.9621 0.
-1.52201 -3.78756 0.
9.40037 24.769 0.
-2.02618 -5.27455 0.
-24.6127 -65.1576 0.
8.29632 22.3097 0.
13.6005 36.8624 0.
-87.0104 -235.839 0.
-57.4009 -158.612 0.
-335.342 -918.727 0.
-18.4192 -50.702 0.
16.2485 44.4924 0.
-19.1857 -52.7754 0.
-99.9836 -276.235 0.
14.6865 40.6785 0.
22.3264 61.8302 0.
22.4455 62.0009 0.
-8.39679 -23.2575 0.
-78.658 -217.309 0.
5.05145 13.991 0.
5.70439 15.7738 0.
-0.309066 -0.853542 0.
-12.2001 -33.6426 0.
-142.274 -394.074 0.
16.6686 46.0556 0.
-145.939 -396.373 0.
6.73255 18.5181 0.
12.305 34.0596 0.
-0.028614 -22.0897 0.
2.833 7.76491 0.
-3.57962 -9.40904 0.
9.83746 27.2104 0.
-526.726 -1274.75 0.
0.42984 1.17029 0.
-0.000121847 -8.89434 0.
3.24819 8.80069 0.
0.173799 0.408055 0.
0.103176 0.260942 0.
0.66978 1.80801 0.
-8.54359 -23.6325 0.
-0.000694751 -0.210079 0.
-14.6429 -27.11 0.
-12.4143 -23.8507 0.
-15.0801 -31.1446 0.
-14.6667 -32.1803 0.
-11.7725 -27.132 0.
-10.2434 -24.9576 0.
-12.494 -32.9031 0.
-4.45158 -12.2813 0.
-26.8502 -69.0224 0.
-10.6785 -26.9995 0.
-8.66272 -19.5689 0.
-34.9203 -66.2485 0.
-22.5524 -30.4457 0.
-23.0784 -30.2414 0.
-0.193818 -0.000636491 0.
-0.139235 -0.00419012 0.
-14.9962 -10.0839 0.
0.0125355 0.459941 0.
-4.44182 -12.2827 0.
-4.97353e-06 -0.931824 0.
-0.028183 -1.87887 0.
-0.00379162 -4.43006 0.
1.38433 3.34075 0.
-327.499 -654.613 0.
-404.127 -1050.99 0.
0.605691 1.65637 0.
-0.00486043 -37.7278 0.
8.70132 23.815 0.
9.62795 26.6113 0.
9.46386 25.9787 0.
6.50126 17.7259 0.
-0.000859752 -51.4142 0.
-186.951 -517.819 0.
-9.25683 -25.6105 0.
-13.2821 -36.4986 0.
-11.5934 -31.8473 0.
-8.41532 -23.2335 0.
-22.4435 -61.9668 0.
-0.978549 -2.70232 0.
-4.53571 -12.54 0.
-194.294 -538.155 0.
24.8818 68.8728 0.
-114.672 -317.128 0.
-50.073 -138.268 0.
-71.449 -197.599 0.
-230.79 -632.167 0.
-33.0693 -90.7494 0.
7.30192 20.1452 0.
16.0826 44.3223 0.
-43.1352 -116.588 0.
35.9895 98.9828 0.
-60.6129 -162.742 0.
29.6021 78.9644 0.
-510.003 -1305.5 0.
28.7981 76.2133 0.
27.6497 60.0564 0.
21.1047 51.5583 0.
-530.191 -1001.11 0.
38.7923 80.4405 0.
-0.152065 -0.311503 0.
-17.7775 -43.667 0.
-149.207 -393.196 0.
35.1133 94.2466 0.
16.5243 43.5898 0.
30.8199 82.9326 0.
-9.5792 -25.9795 0.
-4.18391 -11.3346 0.
-68.4539 -189.103 0.
-266.932 -732.351 0.
15.4553 42.5903 0.
-82.7657 -227.007 0.
-10.02 -27.5665 0.
-141.661 -389.343 0.
19.3337 53.5499 0.
-120.727 -334.261 0.
2.4169 6.67874 0.
12.1484 33.6471 0.
-17.5666 -48.5605 0.
-1.13287 -3.13774 0.
-99.7816 -275.682 0.
-23.8211 -65.8007 0.
-2.25506 -6.22154 0.
-0.184717 -55.4774 0.
-13.1132 -36.2383 0.
-343.821 -932.222 0.
-1.90272 -5.22668 0.
9.59248 26.5692 0.
-0.0519585 -28.6771 0.
0.333693 0.915724 0.
-0.00193895 -6.58372 0.
1.9295 5.26284 0.
-1.03463 -20.3318 0.
-0.064892 -8.95098 0.
0.940635 2.59009 0.
-0.0374188 -1.75694 0.
0.526448 6.78257 0.
0.903805 2.36613 0.
0.820223 2.24656 0.
-337.125 -933.702 0.
0.0898789 0.243624 0.
-431.712 -1041.61 0.
-10.733 -23.3116 0.
-10.6894 -24.0737 0.
-525.516 -1391.72 0.
-11.1683 -27.9176 0.
-16.5857 -41.6564 0.
-273.486 -744.545 0.
-331.603 -911.547 0.
-60.2225 -154.892 0.
-37.2471 -93.6972 0.
-466.332 -1269.35 0.
-77.4071 -203.895 0.
-25.9514 -46.3499 0.
-351.439 -729.695 0.
-9.89173 -7.02936 0.
-594.098 -1598.11 0.
0.261967 0.569527 0.
-18.3102 -50.06 0.
0.378941 1.04229 0.
-0.00393725 -2.37928 0.
1.17193 3.2064 0.
0.0163753 9.81678 0.
4.25951 10.9239 0.
0.0351822 7.91518 0.
-6.53479 -17.5928 0.
3.82758 10.5615 0.
3.24195 8.97243 0.
1.29165 3.5337 0.
-193.463 -534.628 0.
-162.917 -449.249 0.
-0.00907505 -37.8595 0.
12.3829 34.2862 0.
-6.78885 -18.647 0.
-1.33353 -3.68953 0.
-8.6772 -23.8691 0.
-108.382 -298.033 0.
-7.5199 -20.7955 0.
-86.5166 -238.878 0.
-70.6639 -194.979 0.
4.52737 12.5195 0.
-303.792 -840.623 0.
-101.376 -280.532 0.
-0.136135 -72.4364 0.
-126.957 -350.845 0.
-25.9412 -71.7024 0.
-55.9814 -153.572 0.
-19.5158 -53.5635 0.
6.69595 18.4842 0.
-6.34838 -17.5071 0.
-11.7214 -31.6372 0.
32.2258 88.5234 0.
-224.65 -602.829 0.
29.3738 78.0191 0.
-6.77202 -18.2497 0.
-107.29 -282.477 0.
38.2829 82.9726 0.
22.5575 53.1246 0.
-113.114 -209.766 0.
23.6361 46.2523 0.
5.85069 11.9411 0.
-6.39099 -104.775 0.
-24.1425 -63.6173 0.
20.2256 54.0906 0.
-411.416 -1106.94 0.
18.6619 50.9373 0.
-28.7603 -78.0507 0.
3.38881 9.37384 0.
-200.933 -554.923 0.
-67.521 -186.14 0.
-15.9806 -44.0828 0.
25.6319 70.9309 0.
15.5122 42.6823 0.
-15.5181 -42.6568 0.
2.83236 7.84494 0.
-248.828 -689.161 0.
-12.2181 -33.7749 0.
-152.352 -421.941 0.
-12.4432 -34.3949 0.
-35.2375 -97.6 0.
22.5071 62.2733 0.
-68.3386 -188.81 0.
-306.048 -844.737 0.
1.35771 3.75754 0.
-93.1508 -257.464 0.
13.8968 38.4611 0.
-0.189099 -46.9632 0.
-316.015 -875.153 0.
5.80211 15.9835 0.
4.45532 12.2356 0.
3.82805 10.5141 0.
-35.0331 -96.2833 0.
7.76174 21.2248 0.
-0.092893 -11.9714 0.
0.000359785 0.138928 0.
-383.644 -1039.32 0.
-0.156152 -14.8592 0.
-468.416 -1090.22 0.
-0.0411241 -4.24243 0.
0.227202 0.627164 0.
0.441639 1.17432 0.
-0.00262753 -0.0455281 0.
-10.4213 -22.6439 0.
-10.024 -22.539 0.
-6.09106 -15.7338 0.
-6.49766 -16.8103 0.
-22.6055 -58.3009 0.
-11.7858 -31.9424 0.
-5.04257 -13.8296 0.
-21.6684 -55.811 0.
-2.22794 -6.05397 0.
0.0522105 0.0356595 0.
-19.8721 -50.3858 0.
-8.20019 -19.48 0.
-11.434 -26.9167 0.
-2.88865 -2.31993 0.
-12.1812 -7.19932 0.
0.0717014 0.460097 0.
-0.0152228 -0.434155 0.
-357.545 -964.573 0.
1.61995 4.33173 0.
-541.849 -1171.68 0.
3.59945 9.56333 0.
-0.243292 -11.1728 0.
7.33876 19.9368 0.
-0.932265 -2.54841 0.
2.09184 5.77661 0.
-330.018 -907.024 0.
-4.48008 -12.2566 0.
-4.47133 -12.3776 0.
-102.333 -282.072 0.
-40.2755 -111.416 0.
-11.9948 -33.1914 0.
15.9849 43.8961 0.
-153.616 -422.297 0.
8.19122 22.5535 0.
17.648 48.8088 0.
-328.992 -910.779 0.
-61.3397 -169.445 0.
-154.977 -428.053 0.
-49.1954 -136.064 0.
7.62679 21.1249 0.
-257.901 -713.455 0.
14.3229 39.515 0.
-208.706 -577.158 0.
-7.32854 -20.2428 0.
-38.1671 -105.486 0.
-231.751 -636.189 0.
20.7241 57.3623 0.
-14.0383 -38.7383 0.
3.03891 8.31333 0.
-324.968 -891.464 0.
-2.79252 -7.70239 0.
-264.313 -698.444 0.
0.173103 0.463759 0.
-348.626 -912.575 0.
-17.9319 -38.7812 0.
-508.144 -1159.44 0.
11.8424 21.5543 0.
-37.1874 -68.4237 0.
3.53742 7.19535 0.
-369.506 -880.034 0.
-0.436719 -96.8184 0.
3.81138 10.1507 0.
-105.371 -283.704 0.
-12.1694 -33.123 0.
-23.3995 -63.5447 0.
-49.2454 -136.181 0.
-43.9316 -121.284 0.
-105.105 -289.586 0.
-22.7298 -62.6319 0.
11.8445 32.7742 0.
-132.458 -364.515 0.
8.77569 24.2573 0.
-91.7783 -254.201 0.
5.90625 16.3581 0.
20.8639 57.6944 0.
-91.3606 -252.734 0.
6.82625 18.8671 0.
-258.527 -716.067 0.
21.1846 58.6505 0.
-104.2 -287.942 0.
-10.7147 -29.5654 0.
-0.0347553 -59.2536 0.
-213.207 -589.385 0.
-9.50338 -26.3043 0.
-1.34669 -3.72283 0.
-10.6517 -29.4607 0.
-5.83219 -16.0503 0.
-12.7154 -34.8852 0.
8.37474 23.0452 0.
-302.016 -833.159 0.
-0.0812442 -12.4973 0.
-210.152 -549.347 0.
-0.612627 -1.65452 0.
-1.72024 -4.73695 0.
-0.0862951 -5.32389 0.
0.669671 1.69066 0.
-0.00249754 -2.27705 0.
0.336696 0.921186 0.
0.395458 1.03297 0.
0.032405 0.505699 0.
-11.1108 -24.1698 0.
-9.52224 -21.4343 0.
-9.16255 -24.1152 0.
-12.3122 -32.3657 0.
-29.3355 -77.0357 0.
-10.4595 -28.6006 0.
-5.17006 -14.1678 0.
-11.7332 -32.4478 0.
-1.02779 -1.93641 0.
0.0874869 0.0675618 0.
-16.5672 -40.0181 0.
-8.375 -12.7696 0.
-5.60151 -6.60553 0.
0.0355731 0.0420277 0.
-11.1366 -7.78698 0.
-0.317583 -2.09656 0.
0.874684 2.17357 0.
0.65014 1.77485 0.
0.0111283 3.01994 0.
0.786519 1.88562 0.
-0.0841246 -13.3284 0.
-352.934 -896.04 0.
-2.86787 -7.93501 0.
-107.745 -296.415 0.
10.5896 29.2605 0.
-3.98776 -10.9752 0.
7.11559 19.6344 0.
2.22111 6.14731 0.
-114.239 -314.762 0.
-14.8955 -41.2126 0.
-238.267 -658.686 0.
-0.20535 -55.6697 0.
-4.49707 -12.4512 0.
-58.8168 -162.081 0.
-13.9355 -38.5333 0.
-241.377 -668.079 0.
-17.2936 -47.7937 0.
15.8662 43.8647 0.
-120.923 -334.498 0.
-26.5718 -73.5964 0.
4.10934 11.363 0.
-54.2984 -149.881 0.
19.8116 54.7638 0.
-141.798 -391.357 0.
6.05477 16.7422 0.
-44.5306 -122.259 0.
-16.3845 -45.3314 0.
-30.1455 -83.2362 0.
5.74016 15.6789 0.
-225.489 -617.583 0.
-15.646 -43.101 0.
-165.146 -433.829 0.
3.7824 10.0633 0.
-0.846026 -2.30528 0.
-1.96675 -101.325 0.
-15.7076 -34.0656 0.
14.384 31.1011 0.
-1.66171 -3.15659 0.
-140.524 -284.772 0.
-433.185 -1012.54 0.
-3.75515 -10.2079 0.
-59.6038 -157.995 0.
11.4146 31.3682 0.
-250.35 -679.129 0.
21.9333 60.681 0.
-67.9516 -187.85 0.
-12.7386 -35.2189 0.
-270.297 -744.266 0.
12.6191 34.7503 0.
19.4655 53.856 0.
-170.665 -471.531 0.
-0.0429266 -63.274 0.
-157.639 -436.614 0.
-0.0129951 -70.9653 0.
-41.9735 -116.104 0.
-6.22609 -17.228 0.
0.321193 0.887691 0.
13.6474 37.7558 0.
3.02218 8.36652 0.
-129.84 -358.855 0.
5.26761 14.5383 0.
21.0835 58.2721 0.
-9.66478 -26.7346 0.
11.3395 31.3891 0.
-262.46 -725.971 0.
5.64927 15.6332 0.
-0.130029 -42.4165 0.
6.07999 16.6699 0.
12.0007 33.0724 0.
16.8172 46.4759 0.
-4.1561 -11.4192 0.
-233.276 -616.879 0.
10.8487 29.5331 0.
5.60443 15.5091 0.
-0.095339 -4.95345 0.
1.78838 4.69801 0.
2.97937 8.25233 0.
-276.767 -751.031 0.
0.17308 0.478028 0.
-0.0317783 -0.648953 0.
-421.513 -1088.73 0.
-2.18216 -5.60866 0.
-186.337 -473.431 0.
-22.5049 -59.6769 0.
-105.638 -275.76 0.
-76.1787 -207.715 0.
-320.781 -884.91 0.
-28.1267 -72.6686 0.
-19.4923 -49.5696 0.
-364.953 -996.477 0.
-29.4414 -69.4183 0.
-14.8185 -24.8935 0.
-271.395 -658.295 0.
0.301694 0.0953055 0.
-294.483 -792.323 0.
0.00271003 0.278453 0.
-287.572 -651.793 0.
-0.0069372 -0.560511 0.
4.47261 12.3559 0.
-0.501864 -12.1979 0.
-0.00537605 -2.56876 0.
11.1689 29.8614 0.
6.64712 18.3635 0.
-1.3708 -3.79655 0.
2.93008 8.09968 0.
-0.126778 -40.7267 0.
-123.73 -341.142 0.
6.28879 17.4013 0.
-82.9245 -229.194 0.
0.770264 2.13146 0.
9.30635 25.5142 0.
15.0943 41.4312 0.
9.90709 27.4291 0.
-78.1269 -215.458 0.
14.5027 40.0938 0.
8.40505 23.117 0.
-119.828 -331.292 0.
-12.1111 -33.4553 0.
-196.323 -543.132 0.
-13.9526 -38.6411 0.
13.1087 36.2822 0.
-51.4465 -142.076 0.
-7.52132 -20.7361 0.
-114.964 -317.001 0.
11.1351 30.8032 0.
-8.52229 -23.4016 0.
-24.53 -67.8287 0.
0.834591 2.31105 0.
-55.3926 -151.049 0.
-14.2263 -39.2731 0.
-16.4292 -45.1895 0.
4.28014 11.6212 0.
-169.342 -446.821 0.
28.6692 77.4465 0.
23.3093 63.9093 0.
-425.241 -920.856 0.
36.9796 77.0706 0.
22.6344 43.2218 0.
-9.25987 -22.1514 0.
-0.208324 -99.8063 0.
-7.66033 -20.597 0.
29.6902 81.0484 0.
29.2825 80.2474 0.
-96.7095 -261.391 0.
-0.569392 -1.57367 0.
-91.5715 -253.054 0.
-16.9272 -46.7923 0.
-298.543 -821.515 0.
26.384 73.0306 0.
-72.2562 -199.89 0.
-21.2216 -58.6253 0.
-0.0365666 -70.0767 0.
-0.0606036 -69.6152 0.
7.54073 20.8716 0.
-68.8936 -190.623 0.
-11.242 -30.9753 0.
9.19976 25.4239 0.
-25.1764 -69.6486 0.
13.2187 36.5918 0.
19.2118 53.1977 0.
19.2511 53.1492 0.
12.4477 34.3734 0.
12.6993 35.1021 0.
-32.9725 -91.0524 0.
-27.8091 -76.7572 0.
6.39565 17.7057 0.
5.65183 15.4914 0.
10.5559 28.9226 0.
-79.7824 -220.156 0.
15.3806 42.5414 0.
-1.51675 -4.15669 0.
12.2419 33.0012 0.
-0.163003 -31.8908 0.
6.79718 18.8269 0.
-122.181 -338.183 0.
-144.629 -351.931 0.
3.85868 10.5005 0.
-0.126905 -0.347072 0.
-0.00195759 -0.553573 0.
1.08553 2.71403 0.
-3.86001 -10.2114 0.
0.0961212 0.258108 0.
-18.1211 -48.9163 0.
-8.32446 -22.1281 0.
-18.3143 -47.4234 0.
-14.3025 -38.782 0.
-5.86898 -15.9704 0.
-19.0921 -51.4242 0.
-8.73816 -23.9259 0.
-7.5018 -20.375 0.
-14.4717 -32.4618 0.
-7.41658 -10.2129 0.
-10.5149 -14.3367 0.
-0.0136175 -0.183801 0.
0.00269692 0.255172 0.
2.76344 7.4649 0.
2.03067 5.1891 0.
7.25707e-07 4.01032 0.
-295.411 -782.676 0.
5.11353 14.1629 0.
-0.00303755 -4.45557 0.
3.37787 8.99591 0.
7.11434 19.6229 0.
-41.6844 -115.417 0.
-0.0305219 -44.5348 0.
6.34431 17.4231 0.
3.38071 9.36218 0.
9.021 24.9781 0.
-2.37161 -6.55626 0.
17.0483 47.1818 0.
10.8405 29.8409 0.
-62.575 -171.722 0.
-6.63788 -18.377 0.
6.41447 17.6021 0.
-12.6796 -35.0459 0.
23.7479 65.2562 0.
-42.6492 -117.96 0.
-17.497 -48.2867 0.
14.3401 39.6718 0.
-27.8844 -77.2126 0.
19.0677 52.8122 0.
-134.512 -371.628 0.
-8.45085 -23.3175 0.
19.9053 55.0453 0.
27.5587 76.2653 0.
1.87626 5.1969 0.
-352.097 -972.787 0.
-9.39686 -26.0264 0.
-422.089 -1149.14 0.
-14.9145 -41.1114 0.
25.9132 71.1479 0.
-14.0215 -37.9269 0.
21.2306 57.6552 0.
12.0697 32.3382 0.
-6.20752 -16.9265 0.
-5.90769 -73.5629 0.
2.36844 5.67359 0.
22.6631 48.5262 0.
20.3025 51.5344 0.
15.1347 41.3965 0.
-12.5356 -33.2372 0.
18.6549 50.3017 0.
17.846 48.7502 0.
6.60627 18.207 0.
-222.437 -613.923 0.
15.7895 43.7339 0.
-0.0689977 -79.7683 0.
5.65361 15.5451 0.
-7.28207 -20.1609 0.
-180.76 -499.996 0.
16.6112 46.0055 0.
5.75381 15.9224 0.
-4.69194 -12.9745 0.
18.4767 51.1229 0.
-152.522 -422.409 0.
7.37589 20.3227 0.
-82.1358 -226.981 0.
-7.96299 -21.9426 0.
-9.33738 -25.8458 0.
-180.625 -500.137 0.
14.6926 40.5497 0.
-135.612 -374.498 0.
-4.29962 -11.8737 0.
-46.6376 -128.808 0.
-14.8054 -40.8717 0.
-36.7141 -101.668 0.
5.85096 16.2058 0.
10.6935 29.28 0.
-336.753 -930.367 0.
-31.1145 -86.1557 0.
-31.0343 -84.8264 0.
-4.09884 -11.0025 0.
-0.141434 -37.8751 0.
12.5429 34.2483 0.
-16.2567 -45.0184 0.
11.6048 30.2523 0.
5.21212 14.3689 0.
8.88439 23.1151 0.
-0.0155284 -2.7152 0.
-0.0244499 -0.570118 0.
0.18675 0.507722 0.
0.254297 0.688469 0.
-92.8523 -254.42 0.
-18.1903 -49.5355 0.
-17.3798 -47.0962 0.
-47.6654 -131.909 0.
-131.633 -364.38 0.
-7.52076 -20.8031 0.
-2.40038 -6.60281 0.
-169.59 -468.106 0.
-14.2009 -25.5275 0.
-11.4338 -20.5047 0.
-115.21 -307.792 0.
0.0471533 0.693134 0.
8.81363e-06 0.477266 0.
0.0497643 4.7421 0.
-0.082374 -5.46669 0.
7.16656 19.6797 0.
-0.105999 -16.7103 0.
-0.0123212 -36.2821 0.
6.30554 17.3472 0.
-0.443798 -25.3533 0.
-157.728 -434.391 0.
-28.6404 -79.2965 0.
-12.3953 -33.9121 0.
7.6423 20.9644 0.
13.3959 37.1026 0.
3.957 10.9587 0.
7.13747 19.7348 0.
-62.0474 -171.736 0.
11.5408 31.7492 0.
-5.41395 -14.9929 0.
-16.777 -46.4452 0.
-7.33093 -20.0905 0.
-14.9988 -41.4464 0.
-0.523482 -1.43707 0.
-7.7172 -20.9744 0.
11.7058 32.2693 0.
-13.7995 -38.1588 0.
-104.693 -289.84 0.
-6.14761 -17.0273 0.
-20.2679 -56.0198 0.
-5.71257 -15.7738 0.
-6.69966 -18.535 0.
7.09191 19.6327 0.
-0.294877 -0.81674 0.
-150.775 -416.213 0.
-10.2569 -28.2847 0.
5.7536 15.9061 0.
-150.973 -415.451 0.
32.0175 88.6483 0.
-72.9829 -196.618 0.
-0.357662 -74.6506 0.
-116.252 -308.484 0.
-7.96143 -21.5602 0.
10.558 23.7516 0.
-1.7571 -4.30867 0.
-12.1676 -74.256 0.
-5.31935 -13.1435 0.
-13.098 -35.4272 0.
-2.21341 -6.06369 0.
24.8217 65.8936 0.
19.9206 55.1686 0.
13.1064 35.9817 0.
-94.416 -260.154 0.
0.00101409 0.00279636 0.
-29.2726 -80.9108 0.
29.878 82.6909 0.
-3.36809 -9.32672 0.
-0.047524 -76.0806 0.
-2.76776 -7.66472 0.
-37.4081 -103.549 0.
7.47244 20.6832 0.
-14.4816 -40.051 0.
-9.19389 -25.4578 0.
20.9218 57.645 0.
-252.963 -698.694 0.
2.70528 7.45186 0.
8.15146 22.5739 0.
14.1842 39.2722 0.
-11.6367 -32.1039 0.
-76.2501 -210.496 0.
13.0867 35.3292 0.
-144.837 -396.381 0.
-14.029 -38.7344 0.
12.7273 35.2438 0.
12.0917 33.4903 0.
-5.51423 -15.0882 0.
-5.80422 -15.8748 0.
-9.07903 -25.1413 0.
-125.637 -347.758 0.
2.40313 6.4257 0.
-78.7585 -214.971 0.
-12.5931 -34.4187 0.
-18.0665 -49.9413 0.
-0.289104 -9.92448 0.
5.81436 16.0913 0.
8.22659 22.771 0.
-154.272 -397.501 0.
-0.0759664 -7.40322 0.
-108.544 -296.145 0.
-0.000563682 -0.536257 0.
-27.9833 -77.3586 0.
-8.96854 -24.5387 0.
-9.83539 -26.8983 0.
-12.2336 -33.8195 0.
-4.10717 -11.3388 0.
-10.9277 -30.0194 0.
-4.25442 -11.7632 0.
-6.85626 -17.0665 0.
-10.2239 -26.2647 0.
-4.1714 -9.94571 0.
-16.3888 -44.6612 0.
0.0012825 0.201453 0.
-189.769 -414.907 0.
4.11572 11.3929 0.
-113.42 -306.051 0.
-0.174658 -18.5605 0.
5.55052 15.3213 0.
4.83974 13.3778 0.
-135.976 -375.082 0.
-2.08341 -5.52423 0.
6.96651 19.295 0.
-16.2489 -44.986 0.
1.03592 2.83257 0.
-38.0504 -104.26 0.
-0.67051 -1.85719 0.
-26.4826 -73.3506 0.
-0.243815 -47.2198 0.
-65.2141 -179.773 0.
1.79615 4.93816 0.
-3.65618 -10.1265 0.
-144.506 -400.027 0.
13.8577 37.9245 0.
-11.9636 -32.903 0.
8.48169 23.2601 0.
18.2957 49.6469 0.
-35.6856 -98.2478 0.
23.1678 64.0267 0.
-17.7293 -49.0683 0.
-14.486 -40.1227 0.
-2.70109 -7.47782 0.
26.7457 73.9039 0.
-6.81818 -18.885 0.
-15.8941 -44.0124 0.
-109.481 -303.22 0.
15.8037 43.7467 0.
-165.649 -457.239 0.
7.57486 20.9526 0.
12.0764 33.1754 0.
31.5366 87.2647 0.
27.6922 76.1853 0.
16.7881 45.8306 0.
-0.522502 -67.7796 0.
-176.123 -473.081 0.
-0.719524 -95.1379 0.
15.4674 36.6684 0.
4.34743 10.9098 0.
2.29724 5.50753 0.
7.83393 21.6818 0.
29.8827 80.8365 0.
-204.308 -532.234 0.
-0.0349929 -60.7835 0.
-185.716 -507.455 0.
27.9734 77.4814 0.
25.6531 70.596 0.
-57.4207 -158.727 0.
-17.1052 -47.3235 0.
-34.5212 -95.6102 0.
5.71014 15.8 0.
11.4342 31.6606 0.
-48.7376 -134.941 0.
1.85116 5.12096 0.
-2.20255 -6.08818 0.
11.2193 30.8027 0.
24.9666 68.7907 0.
-13.6402 -37.6755 0.
-6.54416 -18.0213 0.
-2.45905 -6.80986 0.
-0.0859843 -55.6105 0.
-5.87249 -16.26 0.
-74.7321 -206.232 0.
-2.24603 -6.05366 0.
-27.5915 -75.4487 0.
5.33944 14.7443 0.
2.52321 6.93016 0.
17.1761 47.5708 0.
-116.151 -317.597 0.
-4.19882 -11.3261 0.
1.3145 3.64023 0.
7.5855 20.9983 0.
-0.227833 -0.606886 0.
17.5754 46.9056 0.
-15.1734 -41.508 0.
-49.486 -136.456 0.
-0.540318 -17.788 0.
-64.96 -178.335 0.
-0.0485272 -14.417 0.
1.57913 4.26434 0.
3.96203 10.593 0.
-11.556 -31.9571 0.
-0.000201234 -0.393676 0.
-21.6975 -60.096 0.
-14.0285 -38.7857 0.
-13.9072 -38.3824 0.
-22.8883 -63.3498 0.
-23.5733 -65.1697 0.
-16.831 -44.9026 0.
-12.824 -32.786 0.
-15.983 -35.7963 0.
-12.3676 -33.6763 0.
-5.65399 -15.6602 0.
-8.58768 -23.7863 0.
-0.00121674 -2.73128 0.
-0.015225 -0.252098 0.
0.00021053 0.0420374 0.
4.38444 12.0677 0.
4.09535 11.0946 0.
9.10104 25.2034 0.
-0.0456985 -32.2028 0.
4.74103 12.379 0.
-6.76196 -17.8304 0.
7.30208 20.2241 0.
-54.0998 -149.772 0.
-3.43264 -9.38111 0.
0.338804 0.919318 0.
-1.6453 -4.55693 0.
-11.6569 -32.1151 0.
4.69476 12.8385 0.
-100.471 -276.834 0.
10.589 29.0939 0.
-0.72939 -2.02028 0.
-6.05868 -16.5974 0.
4.65959 12.7334 0.
17.4683 46.6313 0.
7.38464 20.23 0.
-0.792141 -2.14632 0.
-25.3177 -69.604 0.
-2.38036 -6.57428 0.
15.0711 41.6324 0.
-68.1344 -188.718 0.
-0.00235884 -60.6895 0.
-3.8371 -10.6093 0.
-3.90391 -10.8132 0.
13.8666 38.391 0.
-229.1 -634.529 0.
-0.015767 -70.6595 0.
-3.76571 -10.4046 0.
-0.874222 -2.41945 0.
17.6756 48.958 0.
-3.9744 -10.9898 0.
4.45291 12.2296 0.
-39.266 -106.888 0.
-6.52142 -17.6188 0.
10.2095 27.974 0.
-0.745056 -68.0081 0.
-9.64714 -22.0294 0.
-112.812 -274.558 0.
13.0212 35.9377 0.
11.4875 31.6392 0.
-13.9454 -37.1161 0.
3.46457 9.33036 0.
4.32668 11.941 0.
1.35333 3.74759 0.
-6.42014 -17.7793 0.
-112.307 -308.355 0.
-0.152898 -59.9822 0.
-82.9255 -229.467 0.
13.7846 38.1808 0.
-0.0210581 -60.2925 0.
-75.0361 -207.74 0.
-0.935968 -2.57876 0.
12.219 33.7774 0.
-155.082 -429.388 0.
-11.424 -31.3294 0.
-6.66106 -18.3983 0.
13.7194 37.3392 0.
-0.115422 -47.4689 0.
-0.949195 -2.62871 0.
15.9874 44.0835 0.
14.7251 40.7616 0.
-10.9761 -30.2791 0.
-3.89402 -10.4073 0.
14.2872 39.0447 0.
19.5149 52.6592 0.
17.251 47.2886 0.
-39.2518 -108.707 0.
2.59016 7.17425 0.
9.17502 24.7789 0.
-12.6712 -35.0916 0.
-3.08992 -8.55415 0.
1.39504 3.60809 0.
-9.07557 -24.0521 0.
-22.2243 -60.8477 0.
3.63644 9.96972 0.
-2.22486 -5.74392 0.
5.69757 15.7484 0.
11.0753 30.1309 0.
-0.0390272 -10.8663 0.
-0.00653516 -0.37495 0.
0.0118786 0.0328988 0.
-16.6776 -35.614 0.
-15.5615 -43.0901 0.
-0.350035 -0.959745 0.
-1.5078 -4.12083 0.
-13.5688 -36.7856 0.
-10.1567 -27.8849 0.
-9.29681 -22.8979 0.
-5.00598 -6.50809 0.
-25.4499 -63.7662 0.
-0.854988 -1.41375 0.
-13.6407 -35.4985 0.
-35.5148 -82.1851 0.
-5.62734e-05 -1.30325 0.
1.51239 3.86866 0.
-0.0885644 -7.46862 0.
2.67876 7.41797 0.
10.1142 26.9392 0.
6.87797 18.4772 0.
7.17361 19.7759 0.
-2.57358 -6.67563 0.
-0.411981 -1.08018 0.
-7.92075 -21.6989 0.
-110.529 -305.986 0.
-0.501481 -1.36992 0.
-0.082689 -46.7356 0.
-4.63026 -12.8223 0.
-13.3664 -36.823 0.
10.8939 29.7823 0.
-5.83544 -15.7557 0.
3.03005 8.39261 0.
-12.8569 -35.6078 0.
2.22489 5.97448 0.
-10.6065 -28.9421 0.
18.376 48.5202 0.
-133.228 -364.582 0.
-0.169341 -0.458267 0.
-0.40773 -57.7967 0.
-11.3593 -31.3542 0.
9.06933 25.0349 0.
-85.2254 -236.058 0.
-10.6816 -29.5855 0.
-0.131986 -57.9501 0.
-136.874 -379.116 0.
3.09805 8.57638 0.
19.8334 54.9329 0.
-11.0877 -30.6966 0.
-0.0160508 -69.3721 0.
2.10259 5.82158 0.
-7.44827 -20.6139 0.
-0.112429 -39.0515 0.
15.1342 41.5096 0.
14.3257 39.5985 0.
-426.76 -1144.84 0.
1.51808 4.12927 0.
25.1733 69.6996 0.
-495.846 -1087.16 0.
4.05066 10.8145 0.
-0.00388044 -48.0345 0.
-1.3997 -3.82348 0.
-0.251178 -35.1261 0.
21.6415 57.9406 0.
-0.19246 -69.5869 0.
23.3366 64.6232 0.
-0.0194316 -62.2217 0.
2.90089 8.03408 0.
-6.774 -18.6593 0.
-157.605 -436.215 0.
12.349 33.8295 0.
15.7393 43.5724 0.
18.1618 50.2759 0.
-13.3189 -36.7129 0.
-15.4698 -42.7282 0.
20.0106 54.3168 0.
13.9635 38.2626 0.
-32.3531 -89.3282 0.
1.73802 4.72288 0.
-61.3723 -167.281 0.
-41.7424 -114.702 0.
-7.30121 -20.1191 0.
-32.3277 -89.4693 0.
0.875897 2.36264 0.
22.0761 58.7586 0.
7.50672 20.5117 0.
15.5479 41.8198 0.
-17.9855 -49.2122 0.
-60.0968 -166.428 0.
0.508218 1.38247 0.
12.9555 35.0471 0.
-3.62473 -9.91267 0.
-7.3629 -19.9268 0.
3.63142 9.30958 0.
5.83518 15.3545 0.
-31.9668 -87.5936 0.
-16.0372 -44.1317 0.
3.67674 9.39113 0.
0.0123218 0.0309326 0.
9.39138 25.2825 0.
0.784752 2.15357 0.
2.42501 6.5995 0.
-5.14185 -10.5058 0.
0.87444 2.28224 0.
-4.08168 -11.2527 0.
-1.17958 -3.23092 0.
-6.14121 -16.875 0.
-12.4112 -27.5741 0.
-16.4089 -44.8819 0.
-13.039 -25.0647 0.
-1.87228 -2.88526 0.
-8.04766 -14.0972 0.
-0.56729 -1.06173 0.
-6.24298 -14.8284 0.
0.293709 1.9581 0.
2.09983 5.811 0.
-7.73909 -21.1955 0.
-0.134818 -6.89197 0.
-0.341318 -4.04615 0.
-27.8849 -72.9901 0.
6.79746 18.1272 0.
-11.861 -31.313 0.
-1.28531 -40.7728 0.
-66.4344 -173.143 0.
-18.7298 -51.2448 0.
12.9559 33.1316 0.
-11.8327 -32.3177 0.
-9.80381 -26.9814 0.
-7.35733 -20.1458 0.
-15.7727 -43.4593 0.
15.1099 40.4871 0.
5.00169 13.4952 0.
-52.2634 -144.757 0.
-42.2631 -117.024 0.
-8.51357 -22.7684 0.
-93.6806 -255.246 0.
20.8103 54.3508 0.
-2.07261 -39.2873 0.
16.3134 44.1196 0.
5.88698 15.9668 0.
-131.787 -363.599 0.
-1.45696 -4.02067 0.
14.4976 38.9525 0.
-55.9838 -155.063 0.
-0.155667 -61.6762 0.
-58.6165 -162.355 0.
18.0427 49.944 0.
6.06615 16.7482 0.
19.6942 54.5284 0.
20.3457 56.3402 0.
-0.282562 -62.7157 0.
15.5709 42.9594 0.
-0.0302436 -30.3658 0.
-69.9311 -191.585 0.
15.0132 41.4728 0.
-0.233186 -65.4785 0.
23.3316 63.045 0.
4.73012 13.0727 0.
18.3112 50.5158 0.
